*SPEF "ieee 1481-1999"
*DESIGN "FullAdder"
*DATE "03:02:48 Friday July 31, 2026"
*VENDOR "The OpenROAD Project"
*PROGRAM "OpenROAD"
*VERSION "26Q3-771-g7cfb2105c9"
*DESIGN_FLOW "NAME_SCOPE LOCAL" "PIN_CAP NONE"
*DIVIDER /
*DELIMITER :
*BUS_DELIMITER []
*T_UNIT 1 NS
*C_UNIT 1 PF
*R_UNIT 1 OHM
*L_UNIT 1 HENRY

*NAME_MAP
*9 cin
*6 cout
*8 in1
*7 in2
*1 net1
*3 net2
*4 net3
*2 net4
*10 net5
*5 sum
*347 FILLER_0_0
*364 FILLER_0_107
*365 FILLER_0_115
*366 FILLER_0_119
*367 FILLER_0_121
*368 FILLER_0_129
*369 FILLER_0_137
*370 FILLER_0_145
*371 FILLER_0_149
*372 FILLER_0_151
*373 FILLER_0_159
*349 FILLER_0_16
*374 FILLER_0_167
*375 FILLER_0_175
*376 FILLER_0_179
*377 FILLER_0_181
*378 FILLER_0_189
*379 FILLER_0_197
*380 FILLER_0_205
*381 FILLER_0_209
*382 FILLER_0_211
*383 FILLER_0_219
*384 FILLER_0_227
*385 FILLER_0_235
*386 FILLER_0_239
*350 FILLER_0_24
*387 FILLER_0_241
*388 FILLER_0_249
*389 FILLER_0_257
*390 FILLER_0_265
*391 FILLER_0_269
*392 FILLER_0_271
*393 FILLER_0_279
*351 FILLER_0_28
*394 FILLER_0_287
*395 FILLER_0_295
*396 FILLER_0_299
*397 FILLER_0_301
*398 FILLER_0_309
*352 FILLER_0_31
*399 FILLER_0_317
*400 FILLER_0_325
*401 FILLER_0_329
*402 FILLER_0_331
*403 FILLER_0_339
*353 FILLER_0_39
*354 FILLER_0_47
*355 FILLER_0_55
*356 FILLER_0_59
*357 FILLER_0_61
*358 FILLER_0_69
*359 FILLER_0_77
*348 FILLER_0_8
*360 FILLER_0_85
*361 FILLER_0_89
*362 FILLER_0_91
*363 FILLER_0_99
*867 FILLER_10_0
*883 FILLER_10_107
*884 FILLER_10_115
*885 FILLER_10_123
*886 FILLER_10_131
*887 FILLER_10_139
*888 FILLER_10_147
*889 FILLER_10_149
*890 FILLER_10_151
*891 FILLER_10_159
*869 FILLER_10_16
*892 FILLER_10_167
*893 FILLER_10_175
*894 FILLER_10_183
*895 FILLER_10_191
*896 FILLER_10_199
*897 FILLER_10_207
*898 FILLER_10_209
*899 FILLER_10_211
*900 FILLER_10_219
*901 FILLER_10_227
*902 FILLER_10_235
*870 FILLER_10_24
*903 FILLER_10_243
*904 FILLER_10_251
*905 FILLER_10_259
*906 FILLER_10_267
*907 FILLER_10_269
*908 FILLER_10_271
*909 FILLER_10_279
*871 FILLER_10_28
*910 FILLER_10_287
*911 FILLER_10_295
*912 FILLER_10_303
*872 FILLER_10_31
*913 FILLER_10_311
*914 FILLER_10_319
*915 FILLER_10_327
*916 FILLER_10_329
*917 FILLER_10_331
*918 FILLER_10_339
*873 FILLER_10_39
*874 FILLER_10_47
*875 FILLER_10_55
*876 FILLER_10_63
*877 FILLER_10_71
*878 FILLER_10_79
*868 FILLER_10_8
*879 FILLER_10_87
*880 FILLER_10_89
*881 FILLER_10_91
*882 FILLER_10_99
*919 FILLER_11_0
*932 FILLER_11_101
*933 FILLER_11_109
*934 FILLER_11_117
*935 FILLER_11_119
*936 FILLER_11_121
*937 FILLER_11_129
*938 FILLER_11_137
*939 FILLER_11_145
*940 FILLER_11_153
*921 FILLER_11_16
*941 FILLER_11_161
*942 FILLER_11_169
*943 FILLER_11_177
*944 FILLER_11_179
*945 FILLER_11_181
*946 FILLER_11_189
*947 FILLER_11_197
*948 FILLER_11_205
*949 FILLER_11_213
*950 FILLER_11_221
*951 FILLER_11_229
*952 FILLER_11_237
*953 FILLER_11_239
*922 FILLER_11_24
*954 FILLER_11_241
*955 FILLER_11_249
*956 FILLER_11_257
*957 FILLER_11_265
*958 FILLER_11_273
*959 FILLER_11_281
*960 FILLER_11_289
*961 FILLER_11_297
*962 FILLER_11_299
*963 FILLER_11_301
*964 FILLER_11_309
*965 FILLER_11_317
*923 FILLER_11_32
*966 FILLER_11_325
*967 FILLER_11_333
*968 FILLER_11_341
*969 FILLER_11_345
*924 FILLER_11_40
*925 FILLER_11_48
*926 FILLER_11_56
*927 FILLER_11_61
*928 FILLER_11_69
*929 FILLER_11_77
*920 FILLER_11_8
*930 FILLER_11_85
*931 FILLER_11_93
*970 FILLER_12_0
*986 FILLER_12_107
*987 FILLER_12_115
*988 FILLER_12_123
*989 FILLER_12_131
*990 FILLER_12_139
*991 FILLER_12_147
*992 FILLER_12_149
*993 FILLER_12_151
*994 FILLER_12_159
*972 FILLER_12_16
*995 FILLER_12_167
*996 FILLER_12_175
*997 FILLER_12_183
*998 FILLER_12_191
*999 FILLER_12_199
*1000 FILLER_12_207
*1001 FILLER_12_209
*1002 FILLER_12_211
*1003 FILLER_12_219
*1004 FILLER_12_227
*1005 FILLER_12_235
*973 FILLER_12_24
*1006 FILLER_12_243
*1007 FILLER_12_251
*1008 FILLER_12_259
*1009 FILLER_12_267
*1010 FILLER_12_269
*1011 FILLER_12_271
*1012 FILLER_12_279
*974 FILLER_12_28
*1013 FILLER_12_287
*1014 FILLER_12_295
*1015 FILLER_12_303
*975 FILLER_12_31
*1016 FILLER_12_311
*1017 FILLER_12_319
*1018 FILLER_12_327
*1019 FILLER_12_329
*1020 FILLER_12_331
*1021 FILLER_12_339
*976 FILLER_12_39
*977 FILLER_12_47
*978 FILLER_12_55
*979 FILLER_12_63
*980 FILLER_12_71
*981 FILLER_12_79
*971 FILLER_12_8
*982 FILLER_12_87
*983 FILLER_12_89
*984 FILLER_12_91
*985 FILLER_12_99
*1022 FILLER_13_0
*1035 FILLER_13_101
*1036 FILLER_13_109
*1037 FILLER_13_117
*1038 FILLER_13_119
*1039 FILLER_13_121
*1040 FILLER_13_129
*1041 FILLER_13_137
*1042 FILLER_13_145
*1043 FILLER_13_153
*1024 FILLER_13_16
*1044 FILLER_13_161
*1045 FILLER_13_169
*1046 FILLER_13_177
*1047 FILLER_13_179
*1048 FILLER_13_181
*1049 FILLER_13_189
*1050 FILLER_13_197
*1051 FILLER_13_205
*1052 FILLER_13_213
*1053 FILLER_13_221
*1054 FILLER_13_229
*1055 FILLER_13_237
*1056 FILLER_13_239
*1025 FILLER_13_24
*1057 FILLER_13_241
*1058 FILLER_13_249
*1059 FILLER_13_257
*1060 FILLER_13_265
*1061 FILLER_13_273
*1062 FILLER_13_281
*1063 FILLER_13_289
*1064 FILLER_13_297
*1065 FILLER_13_299
*1066 FILLER_13_301
*1067 FILLER_13_309
*1068 FILLER_13_317
*1026 FILLER_13_32
*1069 FILLER_13_325
*1070 FILLER_13_333
*1071 FILLER_13_341
*1072 FILLER_13_345
*1027 FILLER_13_40
*1028 FILLER_13_48
*1029 FILLER_13_56
*1030 FILLER_13_61
*1031 FILLER_13_69
*1032 FILLER_13_77
*1023 FILLER_13_8
*1033 FILLER_13_85
*1034 FILLER_13_93
*1073 FILLER_14_0
*1089 FILLER_14_107
*1090 FILLER_14_115
*1091 FILLER_14_123
*1092 FILLER_14_131
*1093 FILLER_14_139
*1094 FILLER_14_147
*1095 FILLER_14_149
*1096 FILLER_14_151
*1097 FILLER_14_159
*1075 FILLER_14_16
*1098 FILLER_14_167
*1099 FILLER_14_175
*1100 FILLER_14_183
*1101 FILLER_14_191
*1102 FILLER_14_199
*1103 FILLER_14_207
*1104 FILLER_14_209
*1105 FILLER_14_211
*1106 FILLER_14_219
*1107 FILLER_14_227
*1108 FILLER_14_235
*1076 FILLER_14_24
*1109 FILLER_14_243
*1110 FILLER_14_251
*1111 FILLER_14_259
*1112 FILLER_14_267
*1113 FILLER_14_269
*1114 FILLER_14_271
*1115 FILLER_14_279
*1077 FILLER_14_28
*1116 FILLER_14_287
*1117 FILLER_14_295
*1118 FILLER_14_303
*1078 FILLER_14_31
*1119 FILLER_14_311
*1120 FILLER_14_319
*1121 FILLER_14_327
*1122 FILLER_14_329
*1123 FILLER_14_331
*1124 FILLER_14_339
*1079 FILLER_14_39
*1080 FILLER_14_47
*1081 FILLER_14_55
*1082 FILLER_14_63
*1083 FILLER_14_71
*1084 FILLER_14_79
*1074 FILLER_14_8
*1085 FILLER_14_87
*1086 FILLER_14_89
*1087 FILLER_14_91
*1088 FILLER_14_99
*1125 FILLER_15_0
*1138 FILLER_15_101
*1139 FILLER_15_109
*1140 FILLER_15_117
*1141 FILLER_15_119
*1142 FILLER_15_121
*1143 FILLER_15_129
*1144 FILLER_15_137
*1145 FILLER_15_145
*1146 FILLER_15_153
*1127 FILLER_15_16
*1147 FILLER_15_161
*1148 FILLER_15_169
*1149 FILLER_15_177
*1150 FILLER_15_179
*1151 FILLER_15_181
*1152 FILLER_15_189
*1153 FILLER_15_197
*1154 FILLER_15_205
*1155 FILLER_15_213
*1156 FILLER_15_221
*1157 FILLER_15_229
*1158 FILLER_15_237
*1159 FILLER_15_239
*1128 FILLER_15_24
*1160 FILLER_15_241
*1161 FILLER_15_249
*1162 FILLER_15_257
*1163 FILLER_15_265
*1164 FILLER_15_273
*1165 FILLER_15_281
*1166 FILLER_15_289
*1167 FILLER_15_297
*1168 FILLER_15_299
*1169 FILLER_15_301
*1170 FILLER_15_309
*1171 FILLER_15_317
*1129 FILLER_15_32
*1172 FILLER_15_325
*1173 FILLER_15_333
*1174 FILLER_15_341
*1175 FILLER_15_345
*1130 FILLER_15_40
*1131 FILLER_15_48
*1132 FILLER_15_56
*1133 FILLER_15_61
*1134 FILLER_15_69
*1135 FILLER_15_77
*1126 FILLER_15_8
*1136 FILLER_15_85
*1137 FILLER_15_93
*1176 FILLER_16_0
*1192 FILLER_16_107
*1193 FILLER_16_115
*1194 FILLER_16_123
*1195 FILLER_16_131
*1196 FILLER_16_139
*1197 FILLER_16_147
*1198 FILLER_16_149
*1199 FILLER_16_151
*1200 FILLER_16_159
*1178 FILLER_16_16
*1201 FILLER_16_167
*1202 FILLER_16_175
*1203 FILLER_16_183
*1204 FILLER_16_191
*1205 FILLER_16_199
*1206 FILLER_16_207
*1207 FILLER_16_209
*1208 FILLER_16_211
*1209 FILLER_16_219
*1210 FILLER_16_227
*1211 FILLER_16_235
*1179 FILLER_16_24
*1212 FILLER_16_243
*1213 FILLER_16_251
*1214 FILLER_16_259
*1215 FILLER_16_267
*1216 FILLER_16_269
*1217 FILLER_16_271
*1218 FILLER_16_279
*1180 FILLER_16_28
*1219 FILLER_16_287
*1220 FILLER_16_295
*1221 FILLER_16_303
*1181 FILLER_16_31
*1222 FILLER_16_311
*1223 FILLER_16_319
*1224 FILLER_16_327
*1225 FILLER_16_329
*1226 FILLER_16_331
*1227 FILLER_16_339
*1182 FILLER_16_39
*1183 FILLER_16_47
*1184 FILLER_16_55
*1185 FILLER_16_63
*1186 FILLER_16_71
*1187 FILLER_16_79
*1177 FILLER_16_8
*1188 FILLER_16_87
*1189 FILLER_16_89
*1190 FILLER_16_91
*1191 FILLER_16_99
*1228 FILLER_17_0
*1241 FILLER_17_101
*1242 FILLER_17_109
*1243 FILLER_17_117
*1244 FILLER_17_119
*1245 FILLER_17_121
*1246 FILLER_17_129
*1247 FILLER_17_137
*1248 FILLER_17_145
*1249 FILLER_17_153
*1230 FILLER_17_16
*1250 FILLER_17_161
*1251 FILLER_17_169
*1252 FILLER_17_177
*1253 FILLER_17_179
*1254 FILLER_17_181
*1255 FILLER_17_189
*1256 FILLER_17_197
*1257 FILLER_17_205
*1258 FILLER_17_213
*1259 FILLER_17_221
*1260 FILLER_17_229
*1261 FILLER_17_237
*1262 FILLER_17_239
*1231 FILLER_17_24
*1263 FILLER_17_241
*1264 FILLER_17_249
*1265 FILLER_17_257
*1266 FILLER_17_265
*1267 FILLER_17_273
*1268 FILLER_17_281
*1269 FILLER_17_289
*1270 FILLER_17_297
*1271 FILLER_17_299
*1272 FILLER_17_301
*1273 FILLER_17_309
*1274 FILLER_17_317
*1232 FILLER_17_32
*1275 FILLER_17_325
*1276 FILLER_17_333
*1277 FILLER_17_341
*1278 FILLER_17_345
*1233 FILLER_17_40
*1234 FILLER_17_48
*1235 FILLER_17_56
*1236 FILLER_17_61
*1237 FILLER_17_69
*1238 FILLER_17_77
*1229 FILLER_17_8
*1239 FILLER_17_85
*1240 FILLER_17_93
*1279 FILLER_18_0
*1295 FILLER_18_107
*1296 FILLER_18_115
*1297 FILLER_18_123
*1298 FILLER_18_131
*1299 FILLER_18_139
*1300 FILLER_18_147
*1301 FILLER_18_149
*1302 FILLER_18_151
*1303 FILLER_18_159
*1281 FILLER_18_16
*1304 FILLER_18_167
*1305 FILLER_18_175
*1306 FILLER_18_183
*1307 FILLER_18_191
*1308 FILLER_18_199
*1309 FILLER_18_207
*1310 FILLER_18_209
*1311 FILLER_18_211
*1312 FILLER_18_219
*1313 FILLER_18_227
*1314 FILLER_18_235
*1282 FILLER_18_24
*1315 FILLER_18_243
*1316 FILLER_18_251
*1317 FILLER_18_259
*1318 FILLER_18_267
*1319 FILLER_18_269
*1320 FILLER_18_271
*1321 FILLER_18_279
*1283 FILLER_18_28
*1322 FILLER_18_287
*1323 FILLER_18_295
*1324 FILLER_18_303
*1284 FILLER_18_31
*1325 FILLER_18_311
*1326 FILLER_18_319
*1327 FILLER_18_327
*1328 FILLER_18_329
*1329 FILLER_18_331
*1330 FILLER_18_339
*1285 FILLER_18_39
*1286 FILLER_18_47
*1287 FILLER_18_55
*1288 FILLER_18_63
*1289 FILLER_18_71
*1290 FILLER_18_79
*1280 FILLER_18_8
*1291 FILLER_18_87
*1292 FILLER_18_89
*1293 FILLER_18_91
*1294 FILLER_18_99
*1331 FILLER_19_0
*1344 FILLER_19_101
*1345 FILLER_19_109
*1346 FILLER_19_117
*1347 FILLER_19_119
*1348 FILLER_19_121
*1349 FILLER_19_129
*1350 FILLER_19_137
*1351 FILLER_19_145
*1352 FILLER_19_153
*1333 FILLER_19_16
*1353 FILLER_19_161
*1354 FILLER_19_169
*1355 FILLER_19_177
*1356 FILLER_19_179
*1357 FILLER_19_181
*1358 FILLER_19_189
*1359 FILLER_19_197
*1360 FILLER_19_205
*1361 FILLER_19_213
*1362 FILLER_19_221
*1363 FILLER_19_229
*1364 FILLER_19_237
*1365 FILLER_19_239
*1334 FILLER_19_24
*1366 FILLER_19_241
*1367 FILLER_19_249
*1368 FILLER_19_257
*1369 FILLER_19_265
*1370 FILLER_19_273
*1371 FILLER_19_281
*1372 FILLER_19_289
*1373 FILLER_19_297
*1374 FILLER_19_299
*1375 FILLER_19_301
*1376 FILLER_19_309
*1377 FILLER_19_317
*1335 FILLER_19_32
*1378 FILLER_19_325
*1379 FILLER_19_333
*1380 FILLER_19_341
*1381 FILLER_19_345
*1336 FILLER_19_40
*1337 FILLER_19_48
*1338 FILLER_19_56
*1339 FILLER_19_61
*1340 FILLER_19_69
*1341 FILLER_19_77
*1332 FILLER_19_8
*1342 FILLER_19_85
*1343 FILLER_19_93
*404 FILLER_1_0
*417 FILLER_1_101
*418 FILLER_1_109
*419 FILLER_1_117
*420 FILLER_1_119
*421 FILLER_1_121
*422 FILLER_1_129
*423 FILLER_1_137
*424 FILLER_1_145
*425 FILLER_1_153
*406 FILLER_1_16
*426 FILLER_1_161
*427 FILLER_1_169
*428 FILLER_1_177
*429 FILLER_1_179
*430 FILLER_1_181
*431 FILLER_1_189
*432 FILLER_1_197
*433 FILLER_1_205
*434 FILLER_1_213
*435 FILLER_1_221
*436 FILLER_1_229
*437 FILLER_1_237
*438 FILLER_1_239
*407 FILLER_1_24
*439 FILLER_1_241
*440 FILLER_1_249
*441 FILLER_1_257
*442 FILLER_1_265
*443 FILLER_1_273
*444 FILLER_1_281
*445 FILLER_1_289
*446 FILLER_1_297
*447 FILLER_1_299
*448 FILLER_1_301
*449 FILLER_1_309
*450 FILLER_1_317
*408 FILLER_1_32
*451 FILLER_1_325
*452 FILLER_1_333
*453 FILLER_1_341
*454 FILLER_1_345
*409 FILLER_1_40
*410 FILLER_1_48
*411 FILLER_1_56
*412 FILLER_1_61
*413 FILLER_1_69
*414 FILLER_1_77
*405 FILLER_1_8
*415 FILLER_1_85
*416 FILLER_1_93
*1382 FILLER_20_0
*1398 FILLER_20_107
*1399 FILLER_20_115
*1400 FILLER_20_123
*1401 FILLER_20_131
*1402 FILLER_20_139
*1403 FILLER_20_147
*1404 FILLER_20_149
*1405 FILLER_20_151
*1406 FILLER_20_159
*1384 FILLER_20_16
*1407 FILLER_20_167
*1408 FILLER_20_175
*1409 FILLER_20_183
*1410 FILLER_20_191
*1411 FILLER_20_199
*1412 FILLER_20_207
*1413 FILLER_20_209
*1414 FILLER_20_211
*1415 FILLER_20_219
*1416 FILLER_20_227
*1417 FILLER_20_235
*1385 FILLER_20_24
*1418 FILLER_20_243
*1419 FILLER_20_251
*1420 FILLER_20_259
*1421 FILLER_20_267
*1422 FILLER_20_269
*1423 FILLER_20_271
*1424 FILLER_20_279
*1386 FILLER_20_28
*1425 FILLER_20_287
*1426 FILLER_20_295
*1427 FILLER_20_303
*1387 FILLER_20_31
*1428 FILLER_20_311
*1429 FILLER_20_319
*1430 FILLER_20_327
*1431 FILLER_20_329
*1432 FILLER_20_331
*1433 FILLER_20_339
*1388 FILLER_20_39
*1389 FILLER_20_47
*1390 FILLER_20_55
*1391 FILLER_20_63
*1392 FILLER_20_71
*1393 FILLER_20_79
*1383 FILLER_20_8
*1394 FILLER_20_87
*1395 FILLER_20_89
*1396 FILLER_20_91
*1397 FILLER_20_99
*1434 FILLER_21_0
*1447 FILLER_21_101
*1448 FILLER_21_109
*1449 FILLER_21_117
*1450 FILLER_21_119
*1451 FILLER_21_121
*1452 FILLER_21_129
*1453 FILLER_21_137
*1454 FILLER_21_145
*1455 FILLER_21_153
*1436 FILLER_21_16
*1456 FILLER_21_161
*1457 FILLER_21_169
*1458 FILLER_21_177
*1459 FILLER_21_179
*1460 FILLER_21_181
*1461 FILLER_21_189
*1462 FILLER_21_197
*1463 FILLER_21_205
*1464 FILLER_21_213
*1465 FILLER_21_221
*1466 FILLER_21_229
*1467 FILLER_21_237
*1468 FILLER_21_239
*1437 FILLER_21_24
*1469 FILLER_21_241
*1470 FILLER_21_249
*1471 FILLER_21_257
*1472 FILLER_21_265
*1473 FILLER_21_273
*1474 FILLER_21_281
*1475 FILLER_21_289
*1476 FILLER_21_297
*1477 FILLER_21_299
*1478 FILLER_21_301
*1479 FILLER_21_309
*1480 FILLER_21_317
*1438 FILLER_21_32
*1481 FILLER_21_325
*1482 FILLER_21_333
*1483 FILLER_21_341
*1484 FILLER_21_345
*1439 FILLER_21_40
*1440 FILLER_21_48
*1441 FILLER_21_56
*1442 FILLER_21_61
*1443 FILLER_21_69
*1444 FILLER_21_77
*1435 FILLER_21_8
*1445 FILLER_21_85
*1446 FILLER_21_93
*1485 FILLER_22_0
*1501 FILLER_22_107
*1502 FILLER_22_115
*1503 FILLER_22_123
*1504 FILLER_22_131
*1505 FILLER_22_139
*1506 FILLER_22_147
*1507 FILLER_22_149
*1508 FILLER_22_151
*1509 FILLER_22_159
*1487 FILLER_22_16
*1510 FILLER_22_167
*1511 FILLER_22_175
*1512 FILLER_22_183
*1513 FILLER_22_191
*1514 FILLER_22_199
*1515 FILLER_22_207
*1516 FILLER_22_209
*1517 FILLER_22_211
*1518 FILLER_22_219
*1519 FILLER_22_227
*1520 FILLER_22_235
*1488 FILLER_22_24
*1521 FILLER_22_243
*1522 FILLER_22_251
*1523 FILLER_22_259
*1524 FILLER_22_267
*1525 FILLER_22_269
*1526 FILLER_22_271
*1527 FILLER_22_279
*1489 FILLER_22_28
*1528 FILLER_22_287
*1529 FILLER_22_295
*1530 FILLER_22_303
*1490 FILLER_22_31
*1531 FILLER_22_311
*1532 FILLER_22_319
*1533 FILLER_22_327
*1534 FILLER_22_329
*1535 FILLER_22_331
*1536 FILLER_22_339
*1491 FILLER_22_39
*1492 FILLER_22_47
*1493 FILLER_22_55
*1494 FILLER_22_63
*1495 FILLER_22_71
*1496 FILLER_22_79
*1486 FILLER_22_8
*1497 FILLER_22_87
*1498 FILLER_22_89
*1499 FILLER_22_91
*1500 FILLER_22_99
*1537 FILLER_23_0
*1550 FILLER_23_101
*1551 FILLER_23_109
*1552 FILLER_23_117
*1553 FILLER_23_119
*1554 FILLER_23_121
*1555 FILLER_23_129
*1556 FILLER_23_137
*1557 FILLER_23_145
*1558 FILLER_23_153
*1539 FILLER_23_16
*1559 FILLER_23_161
*1560 FILLER_23_169
*1561 FILLER_23_177
*1562 FILLER_23_179
*1563 FILLER_23_181
*1564 FILLER_23_189
*1565 FILLER_23_197
*1566 FILLER_23_205
*1567 FILLER_23_213
*1568 FILLER_23_221
*1569 FILLER_23_229
*1570 FILLER_23_237
*1571 FILLER_23_239
*1540 FILLER_23_24
*1572 FILLER_23_241
*1573 FILLER_23_249
*1574 FILLER_23_257
*1575 FILLER_23_265
*1576 FILLER_23_273
*1577 FILLER_23_281
*1578 FILLER_23_289
*1579 FILLER_23_297
*1580 FILLER_23_299
*1581 FILLER_23_301
*1582 FILLER_23_309
*1583 FILLER_23_317
*1541 FILLER_23_32
*1584 FILLER_23_325
*1585 FILLER_23_333
*1586 FILLER_23_341
*1587 FILLER_23_345
*1542 FILLER_23_40
*1543 FILLER_23_48
*1544 FILLER_23_56
*1545 FILLER_23_61
*1546 FILLER_23_69
*1547 FILLER_23_77
*1538 FILLER_23_8
*1548 FILLER_23_85
*1549 FILLER_23_93
*1588 FILLER_24_0
*1604 FILLER_24_107
*1605 FILLER_24_115
*1606 FILLER_24_123
*1607 FILLER_24_131
*1608 FILLER_24_139
*1609 FILLER_24_147
*1610 FILLER_24_149
*1611 FILLER_24_151
*1612 FILLER_24_159
*1590 FILLER_24_16
*1613 FILLER_24_167
*1614 FILLER_24_175
*1615 FILLER_24_183
*1616 FILLER_24_191
*1617 FILLER_24_199
*1618 FILLER_24_207
*1619 FILLER_24_209
*1620 FILLER_24_211
*1621 FILLER_24_219
*1622 FILLER_24_227
*1623 FILLER_24_235
*1591 FILLER_24_24
*1624 FILLER_24_243
*1625 FILLER_24_251
*1626 FILLER_24_259
*1627 FILLER_24_267
*1628 FILLER_24_269
*1629 FILLER_24_271
*1630 FILLER_24_279
*1592 FILLER_24_28
*1631 FILLER_24_287
*1632 FILLER_24_295
*1633 FILLER_24_303
*1593 FILLER_24_31
*1634 FILLER_24_311
*1635 FILLER_24_319
*1636 FILLER_24_327
*1637 FILLER_24_329
*1638 FILLER_24_331
*1639 FILLER_24_339
*1594 FILLER_24_39
*1595 FILLER_24_47
*1596 FILLER_24_55
*1597 FILLER_24_63
*1598 FILLER_24_71
*1599 FILLER_24_79
*1589 FILLER_24_8
*1600 FILLER_24_87
*1601 FILLER_24_89
*1602 FILLER_24_91
*1603 FILLER_24_99
*1640 FILLER_25_0
*1653 FILLER_25_101
*1654 FILLER_25_109
*1655 FILLER_25_117
*1656 FILLER_25_119
*1657 FILLER_25_121
*1658 FILLER_25_129
*1659 FILLER_25_137
*1660 FILLER_25_145
*1661 FILLER_25_153
*1642 FILLER_25_16
*1662 FILLER_25_161
*1663 FILLER_25_169
*1664 FILLER_25_177
*1665 FILLER_25_179
*1666 FILLER_25_181
*1667 FILLER_25_189
*1668 FILLER_25_197
*1669 FILLER_25_205
*1670 FILLER_25_213
*1671 FILLER_25_221
*1672 FILLER_25_229
*1673 FILLER_25_237
*1674 FILLER_25_239
*1643 FILLER_25_24
*1675 FILLER_25_241
*1676 FILLER_25_249
*1677 FILLER_25_257
*1678 FILLER_25_265
*1679 FILLER_25_273
*1680 FILLER_25_281
*1681 FILLER_25_289
*1682 FILLER_25_297
*1683 FILLER_25_299
*1684 FILLER_25_301
*1685 FILLER_25_309
*1686 FILLER_25_317
*1644 FILLER_25_32
*1687 FILLER_25_325
*1688 FILLER_25_333
*1689 FILLER_25_341
*1690 FILLER_25_345
*1645 FILLER_25_40
*1646 FILLER_25_48
*1647 FILLER_25_56
*1648 FILLER_25_61
*1649 FILLER_25_69
*1650 FILLER_25_77
*1641 FILLER_25_8
*1651 FILLER_25_85
*1652 FILLER_25_93
*1691 FILLER_26_0
*1707 FILLER_26_107
*1708 FILLER_26_115
*1709 FILLER_26_123
*1710 FILLER_26_131
*1711 FILLER_26_139
*1712 FILLER_26_147
*1713 FILLER_26_149
*1714 FILLER_26_151
*1715 FILLER_26_159
*1693 FILLER_26_16
*1716 FILLER_26_167
*1717 FILLER_26_175
*1718 FILLER_26_183
*1719 FILLER_26_191
*1720 FILLER_26_199
*1721 FILLER_26_207
*1722 FILLER_26_209
*1723 FILLER_26_211
*1724 FILLER_26_219
*1725 FILLER_26_227
*1726 FILLER_26_235
*1694 FILLER_26_24
*1727 FILLER_26_243
*1728 FILLER_26_251
*1729 FILLER_26_259
*1730 FILLER_26_267
*1731 FILLER_26_269
*1732 FILLER_26_271
*1733 FILLER_26_279
*1695 FILLER_26_28
*1734 FILLER_26_287
*1735 FILLER_26_295
*1736 FILLER_26_303
*1696 FILLER_26_31
*1737 FILLER_26_311
*1738 FILLER_26_319
*1739 FILLER_26_327
*1740 FILLER_26_329
*1741 FILLER_26_331
*1742 FILLER_26_339
*1697 FILLER_26_39
*1698 FILLER_26_47
*1699 FILLER_26_55
*1700 FILLER_26_63
*1701 FILLER_26_71
*1702 FILLER_26_79
*1692 FILLER_26_8
*1703 FILLER_26_87
*1704 FILLER_26_89
*1705 FILLER_26_91
*1706 FILLER_26_99
*1743 FILLER_27_0
*1756 FILLER_27_101
*1757 FILLER_27_109
*1758 FILLER_27_117
*1759 FILLER_27_119
*1760 FILLER_27_121
*1761 FILLER_27_129
*1762 FILLER_27_137
*1763 FILLER_27_145
*1764 FILLER_27_153
*1745 FILLER_27_16
*1765 FILLER_27_161
*1766 FILLER_27_169
*1767 FILLER_27_177
*1768 FILLER_27_179
*1769 FILLER_27_181
*1770 FILLER_27_189
*1771 FILLER_27_197
*1772 FILLER_27_205
*1773 FILLER_27_213
*1774 FILLER_27_221
*1775 FILLER_27_229
*1776 FILLER_27_237
*1777 FILLER_27_239
*1746 FILLER_27_24
*1778 FILLER_27_241
*1779 FILLER_27_249
*1780 FILLER_27_257
*1781 FILLER_27_265
*1782 FILLER_27_273
*1783 FILLER_27_281
*1784 FILLER_27_289
*1785 FILLER_27_297
*1786 FILLER_27_299
*1787 FILLER_27_301
*1788 FILLER_27_309
*1789 FILLER_27_317
*1747 FILLER_27_32
*1790 FILLER_27_325
*1791 FILLER_27_333
*1792 FILLER_27_341
*1793 FILLER_27_345
*1748 FILLER_27_40
*1749 FILLER_27_48
*1750 FILLER_27_56
*1751 FILLER_27_61
*1752 FILLER_27_69
*1753 FILLER_27_77
*1744 FILLER_27_8
*1754 FILLER_27_85
*1755 FILLER_27_93
*1794 FILLER_28_0
*1807 FILLER_28_107
*1808 FILLER_28_115
*1809 FILLER_28_123
*1810 FILLER_28_131
*1811 FILLER_28_139
*1812 FILLER_28_147
*1813 FILLER_28_149
*1814 FILLER_28_151
*1815 FILLER_28_159
*1816 FILLER_28_167
*1817 FILLER_28_175
*1818 FILLER_28_183
*1819 FILLER_28_191
*1820 FILLER_28_199
*1821 FILLER_28_207
*1822 FILLER_28_209
*1823 FILLER_28_211
*1824 FILLER_28_219
*1825 FILLER_28_227
*1826 FILLER_28_235
*1827 FILLER_28_243
*1828 FILLER_28_251
*1829 FILLER_28_259
*1795 FILLER_28_26
*1830 FILLER_28_267
*1831 FILLER_28_269
*1832 FILLER_28_271
*1833 FILLER_28_279
*1834 FILLER_28_287
*1835 FILLER_28_295
*1836 FILLER_28_303
*1796 FILLER_28_31
*1837 FILLER_28_311
*1838 FILLER_28_319
*1839 FILLER_28_327
*1840 FILLER_28_329
*1841 FILLER_28_331
*1842 FILLER_28_339
*1797 FILLER_28_35
*1798 FILLER_28_37
*1799 FILLER_28_46
*1800 FILLER_28_54
*1801 FILLER_28_62
*1802 FILLER_28_70
*1803 FILLER_28_78
*1804 FILLER_28_86
*1805 FILLER_28_91
*1806 FILLER_28_99
*1843 FILLER_29_0
*1844 FILLER_29_10
*1858 FILLER_29_101
*1859 FILLER_29_109
*1860 FILLER_29_117
*1861 FILLER_29_119
*1862 FILLER_29_121
*1863 FILLER_29_129
*1864 FILLER_29_137
*1865 FILLER_29_145
*1866 FILLER_29_153
*1867 FILLER_29_161
*1868 FILLER_29_169
*1869 FILLER_29_177
*1870 FILLER_29_179
*1845 FILLER_29_18
*1871 FILLER_29_181
*1872 FILLER_29_189
*1873 FILLER_29_197
*1846 FILLER_29_20
*1874 FILLER_29_205
*1875 FILLER_29_213
*1876 FILLER_29_221
*1877 FILLER_29_229
*1878 FILLER_29_237
*1879 FILLER_29_239
*1880 FILLER_29_241
*1881 FILLER_29_249
*1882 FILLER_29_257
*1883 FILLER_29_265
*1884 FILLER_29_273
*1885 FILLER_29_281
*1886 FILLER_29_289
*1847 FILLER_29_29
*1887 FILLER_29_297
*1888 FILLER_29_299
*1889 FILLER_29_301
*1890 FILLER_29_309
*1891 FILLER_29_317
*1892 FILLER_29_325
*1893 FILLER_29_333
*1894 FILLER_29_341
*1895 FILLER_29_345
*1848 FILLER_29_37
*1849 FILLER_29_45
*1850 FILLER_29_53
*1851 FILLER_29_57
*1852 FILLER_29_59
*1853 FILLER_29_61
*1854 FILLER_29_69
*1855 FILLER_29_77
*1856 FILLER_29_85
*1857 FILLER_29_93
*455 FILLER_2_0
*471 FILLER_2_107
*472 FILLER_2_115
*473 FILLER_2_123
*474 FILLER_2_131
*475 FILLER_2_139
*476 FILLER_2_147
*477 FILLER_2_149
*478 FILLER_2_151
*479 FILLER_2_159
*457 FILLER_2_16
*480 FILLER_2_167
*481 FILLER_2_175
*482 FILLER_2_183
*483 FILLER_2_191
*484 FILLER_2_199
*485 FILLER_2_207
*486 FILLER_2_209
*487 FILLER_2_211
*488 FILLER_2_219
*489 FILLER_2_227
*490 FILLER_2_235
*458 FILLER_2_24
*491 FILLER_2_243
*492 FILLER_2_251
*493 FILLER_2_259
*494 FILLER_2_267
*495 FILLER_2_269
*496 FILLER_2_271
*497 FILLER_2_279
*459 FILLER_2_28
*498 FILLER_2_287
*499 FILLER_2_295
*500 FILLER_2_303
*460 FILLER_2_31
*501 FILLER_2_311
*502 FILLER_2_319
*503 FILLER_2_327
*504 FILLER_2_329
*505 FILLER_2_331
*506 FILLER_2_339
*461 FILLER_2_39
*462 FILLER_2_47
*463 FILLER_2_55
*464 FILLER_2_63
*465 FILLER_2_71
*466 FILLER_2_79
*456 FILLER_2_8
*467 FILLER_2_87
*468 FILLER_2_89
*469 FILLER_2_91
*470 FILLER_2_99
*1896 FILLER_30_0
*1913 FILLER_30_107
*1898 FILLER_30_11
*1914 FILLER_30_115
*1915 FILLER_30_123
*1916 FILLER_30_131
*1917 FILLER_30_139
*1918 FILLER_30_147
*1919 FILLER_30_149
*1920 FILLER_30_151
*1921 FILLER_30_159
*1922 FILLER_30_167
*1923 FILLER_30_175
*1924 FILLER_30_183
*1899 FILLER_30_19
*1925 FILLER_30_191
*1926 FILLER_30_199
*1897 FILLER_30_2
*1927 FILLER_30_207
*1928 FILLER_30_209
*1929 FILLER_30_211
*1930 FILLER_30_219
*1931 FILLER_30_227
*1932 FILLER_30_235
*1933 FILLER_30_243
*1934 FILLER_30_251
*1935 FILLER_30_259
*1936 FILLER_30_267
*1937 FILLER_30_269
*1900 FILLER_30_27
*1938 FILLER_30_271
*1939 FILLER_30_279
*1940 FILLER_30_287
*1901 FILLER_30_29
*1941 FILLER_30_295
*1942 FILLER_30_303
*1902 FILLER_30_31
*1943 FILLER_30_311
*1944 FILLER_30_319
*1945 FILLER_30_327
*1946 FILLER_30_329
*1947 FILLER_30_331
*1948 FILLER_30_339
*1903 FILLER_30_39
*1904 FILLER_30_47
*1905 FILLER_30_55
*1906 FILLER_30_63
*1907 FILLER_30_71
*1908 FILLER_30_79
*1909 FILLER_30_87
*1910 FILLER_30_89
*1911 FILLER_30_91
*1912 FILLER_30_99
*1949 FILLER_31_0
*1962 FILLER_31_101
*1963 FILLER_31_109
*1964 FILLER_31_117
*1965 FILLER_31_119
*1966 FILLER_31_121
*1967 FILLER_31_129
*1968 FILLER_31_137
*1969 FILLER_31_145
*1970 FILLER_31_153
*1951 FILLER_31_16
*1971 FILLER_31_161
*1972 FILLER_31_169
*1973 FILLER_31_177
*1974 FILLER_31_179
*1975 FILLER_31_181
*1976 FILLER_31_189
*1977 FILLER_31_197
*1978 FILLER_31_205
*1979 FILLER_31_213
*1980 FILLER_31_221
*1981 FILLER_31_229
*1982 FILLER_31_237
*1983 FILLER_31_239
*1952 FILLER_31_24
*1984 FILLER_31_241
*1985 FILLER_31_249
*1986 FILLER_31_257
*1987 FILLER_31_265
*1988 FILLER_31_273
*1989 FILLER_31_281
*1990 FILLER_31_289
*1991 FILLER_31_297
*1992 FILLER_31_299
*1993 FILLER_31_301
*1994 FILLER_31_309
*1995 FILLER_31_317
*1953 FILLER_31_32
*1996 FILLER_31_325
*1997 FILLER_31_333
*1998 FILLER_31_341
*1999 FILLER_31_345
*1954 FILLER_31_40
*1955 FILLER_31_48
*1956 FILLER_31_56
*1957 FILLER_31_61
*1958 FILLER_31_69
*1959 FILLER_31_77
*1950 FILLER_31_8
*1960 FILLER_31_85
*1961 FILLER_31_93
*2000 FILLER_32_0
*2016 FILLER_32_107
*2017 FILLER_32_115
*2018 FILLER_32_123
*2019 FILLER_32_131
*2020 FILLER_32_139
*2021 FILLER_32_147
*2022 FILLER_32_149
*2023 FILLER_32_151
*2024 FILLER_32_159
*2002 FILLER_32_16
*2025 FILLER_32_167
*2026 FILLER_32_175
*2027 FILLER_32_183
*2028 FILLER_32_191
*2029 FILLER_32_199
*2030 FILLER_32_207
*2031 FILLER_32_209
*2032 FILLER_32_211
*2033 FILLER_32_219
*2034 FILLER_32_227
*2035 FILLER_32_235
*2003 FILLER_32_24
*2036 FILLER_32_243
*2037 FILLER_32_251
*2038 FILLER_32_259
*2039 FILLER_32_267
*2040 FILLER_32_269
*2041 FILLER_32_271
*2042 FILLER_32_279
*2004 FILLER_32_28
*2043 FILLER_32_287
*2044 FILLER_32_295
*2045 FILLER_32_303
*2005 FILLER_32_31
*2046 FILLER_32_311
*2047 FILLER_32_319
*2048 FILLER_32_327
*2049 FILLER_32_329
*2050 FILLER_32_331
*2051 FILLER_32_339
*2006 FILLER_32_39
*2007 FILLER_32_47
*2008 FILLER_32_55
*2009 FILLER_32_63
*2010 FILLER_32_71
*2011 FILLER_32_79
*2001 FILLER_32_8
*2012 FILLER_32_87
*2013 FILLER_32_89
*2014 FILLER_32_91
*2015 FILLER_32_99
*2052 FILLER_33_0
*2065 FILLER_33_101
*2066 FILLER_33_109
*2067 FILLER_33_117
*2068 FILLER_33_119
*2069 FILLER_33_121
*2070 FILLER_33_129
*2071 FILLER_33_137
*2072 FILLER_33_145
*2073 FILLER_33_153
*2054 FILLER_33_16
*2074 FILLER_33_161
*2075 FILLER_33_169
*2076 FILLER_33_177
*2077 FILLER_33_179
*2078 FILLER_33_181
*2079 FILLER_33_189
*2080 FILLER_33_197
*2081 FILLER_33_205
*2082 FILLER_33_213
*2083 FILLER_33_221
*2084 FILLER_33_229
*2085 FILLER_33_237
*2086 FILLER_33_239
*2055 FILLER_33_24
*2087 FILLER_33_241
*2088 FILLER_33_249
*2089 FILLER_33_257
*2090 FILLER_33_265
*2091 FILLER_33_273
*2092 FILLER_33_281
*2093 FILLER_33_289
*2094 FILLER_33_297
*2095 FILLER_33_299
*2096 FILLER_33_301
*2097 FILLER_33_309
*2098 FILLER_33_317
*2056 FILLER_33_32
*2099 FILLER_33_325
*2100 FILLER_33_333
*2101 FILLER_33_341
*2102 FILLER_33_345
*2057 FILLER_33_40
*2058 FILLER_33_48
*2059 FILLER_33_56
*2060 FILLER_33_61
*2061 FILLER_33_69
*2062 FILLER_33_77
*2053 FILLER_33_8
*2063 FILLER_33_85
*2064 FILLER_33_93
*2103 FILLER_34_0
*2119 FILLER_34_107
*2120 FILLER_34_115
*2121 FILLER_34_123
*2122 FILLER_34_131
*2123 FILLER_34_139
*2124 FILLER_34_147
*2125 FILLER_34_149
*2126 FILLER_34_151
*2127 FILLER_34_159
*2105 FILLER_34_16
*2128 FILLER_34_167
*2129 FILLER_34_175
*2130 FILLER_34_183
*2131 FILLER_34_191
*2132 FILLER_34_199
*2133 FILLER_34_207
*2134 FILLER_34_209
*2135 FILLER_34_211
*2136 FILLER_34_219
*2137 FILLER_34_227
*2138 FILLER_34_235
*2106 FILLER_34_24
*2139 FILLER_34_243
*2140 FILLER_34_251
*2141 FILLER_34_259
*2142 FILLER_34_267
*2143 FILLER_34_269
*2144 FILLER_34_271
*2145 FILLER_34_279
*2107 FILLER_34_28
*2146 FILLER_34_287
*2147 FILLER_34_295
*2148 FILLER_34_303
*2108 FILLER_34_31
*2149 FILLER_34_311
*2150 FILLER_34_319
*2151 FILLER_34_327
*2152 FILLER_34_329
*2153 FILLER_34_331
*2154 FILLER_34_339
*2109 FILLER_34_39
*2110 FILLER_34_47
*2111 FILLER_34_55
*2112 FILLER_34_63
*2113 FILLER_34_71
*2114 FILLER_34_79
*2104 FILLER_34_8
*2115 FILLER_34_87
*2116 FILLER_34_89
*2117 FILLER_34_91
*2118 FILLER_34_99
*2155 FILLER_35_0
*2168 FILLER_35_101
*2169 FILLER_35_109
*2170 FILLER_35_117
*2171 FILLER_35_119
*2172 FILLER_35_121
*2173 FILLER_35_129
*2174 FILLER_35_137
*2175 FILLER_35_145
*2176 FILLER_35_153
*2157 FILLER_35_16
*2177 FILLER_35_161
*2178 FILLER_35_169
*2179 FILLER_35_177
*2180 FILLER_35_179
*2181 FILLER_35_181
*2182 FILLER_35_189
*2183 FILLER_35_197
*2184 FILLER_35_205
*2185 FILLER_35_213
*2186 FILLER_35_221
*2187 FILLER_35_229
*2188 FILLER_35_237
*2189 FILLER_35_239
*2158 FILLER_35_24
*2190 FILLER_35_241
*2191 FILLER_35_249
*2192 FILLER_35_257
*2193 FILLER_35_265
*2194 FILLER_35_273
*2195 FILLER_35_281
*2196 FILLER_35_289
*2197 FILLER_35_297
*2198 FILLER_35_299
*2199 FILLER_35_301
*2200 FILLER_35_309
*2201 FILLER_35_317
*2159 FILLER_35_32
*2202 FILLER_35_325
*2203 FILLER_35_333
*2204 FILLER_35_341
*2205 FILLER_35_345
*2160 FILLER_35_40
*2161 FILLER_35_48
*2162 FILLER_35_56
*2163 FILLER_35_61
*2164 FILLER_35_69
*2165 FILLER_35_77
*2156 FILLER_35_8
*2166 FILLER_35_85
*2167 FILLER_35_93
*2206 FILLER_36_0
*2222 FILLER_36_107
*2223 FILLER_36_115
*2224 FILLER_36_123
*2225 FILLER_36_131
*2226 FILLER_36_139
*2227 FILLER_36_147
*2228 FILLER_36_149
*2229 FILLER_36_151
*2230 FILLER_36_159
*2208 FILLER_36_16
*2231 FILLER_36_167
*2232 FILLER_36_175
*2233 FILLER_36_183
*2234 FILLER_36_191
*2235 FILLER_36_199
*2236 FILLER_36_207
*2237 FILLER_36_209
*2238 FILLER_36_211
*2239 FILLER_36_219
*2240 FILLER_36_227
*2241 FILLER_36_235
*2209 FILLER_36_24
*2242 FILLER_36_243
*2243 FILLER_36_251
*2244 FILLER_36_259
*2245 FILLER_36_267
*2246 FILLER_36_269
*2247 FILLER_36_271
*2248 FILLER_36_279
*2210 FILLER_36_28
*2249 FILLER_36_287
*2250 FILLER_36_295
*2251 FILLER_36_303
*2211 FILLER_36_31
*2252 FILLER_36_311
*2253 FILLER_36_319
*2254 FILLER_36_327
*2255 FILLER_36_329
*2256 FILLER_36_331
*2257 FILLER_36_339
*2212 FILLER_36_39
*2213 FILLER_36_47
*2214 FILLER_36_55
*2215 FILLER_36_63
*2216 FILLER_36_71
*2217 FILLER_36_79
*2207 FILLER_36_8
*2218 FILLER_36_87
*2219 FILLER_36_89
*2220 FILLER_36_91
*2221 FILLER_36_99
*2258 FILLER_37_0
*2271 FILLER_37_101
*2272 FILLER_37_109
*2273 FILLER_37_117
*2274 FILLER_37_119
*2275 FILLER_37_121
*2276 FILLER_37_129
*2277 FILLER_37_137
*2278 FILLER_37_145
*2279 FILLER_37_153
*2260 FILLER_37_16
*2280 FILLER_37_161
*2281 FILLER_37_169
*2282 FILLER_37_177
*2283 FILLER_37_179
*2284 FILLER_37_181
*2285 FILLER_37_189
*2286 FILLER_37_197
*2287 FILLER_37_205
*2288 FILLER_37_213
*2289 FILLER_37_221
*2290 FILLER_37_229
*2291 FILLER_37_237
*2292 FILLER_37_239
*2261 FILLER_37_24
*2293 FILLER_37_241
*2294 FILLER_37_249
*2295 FILLER_37_257
*2296 FILLER_37_265
*2297 FILLER_37_273
*2298 FILLER_37_281
*2299 FILLER_37_289
*2300 FILLER_37_297
*2301 FILLER_37_299
*2302 FILLER_37_301
*2303 FILLER_37_309
*2304 FILLER_37_317
*2262 FILLER_37_32
*2305 FILLER_37_325
*2306 FILLER_37_333
*2307 FILLER_37_341
*2308 FILLER_37_345
*2263 FILLER_37_40
*2264 FILLER_37_48
*2265 FILLER_37_56
*2266 FILLER_37_61
*2267 FILLER_37_69
*2268 FILLER_37_77
*2259 FILLER_37_8
*2269 FILLER_37_85
*2270 FILLER_37_93
*2309 FILLER_38_0
*2325 FILLER_38_107
*2326 FILLER_38_115
*2327 FILLER_38_123
*2328 FILLER_38_131
*2329 FILLER_38_139
*2330 FILLER_38_147
*2331 FILLER_38_149
*2332 FILLER_38_151
*2333 FILLER_38_159
*2311 FILLER_38_16
*2334 FILLER_38_167
*2335 FILLER_38_175
*2336 FILLER_38_183
*2337 FILLER_38_191
*2338 FILLER_38_199
*2339 FILLER_38_207
*2340 FILLER_38_209
*2341 FILLER_38_211
*2342 FILLER_38_219
*2343 FILLER_38_227
*2344 FILLER_38_235
*2312 FILLER_38_24
*2345 FILLER_38_243
*2346 FILLER_38_251
*2347 FILLER_38_259
*2348 FILLER_38_267
*2349 FILLER_38_269
*2350 FILLER_38_271
*2351 FILLER_38_279
*2313 FILLER_38_28
*2352 FILLER_38_287
*2353 FILLER_38_295
*2354 FILLER_38_303
*2314 FILLER_38_31
*2355 FILLER_38_311
*2356 FILLER_38_319
*2357 FILLER_38_327
*2358 FILLER_38_329
*2359 FILLER_38_331
*2360 FILLER_38_339
*2315 FILLER_38_39
*2316 FILLER_38_47
*2317 FILLER_38_55
*2318 FILLER_38_63
*2319 FILLER_38_71
*2320 FILLER_38_79
*2310 FILLER_38_8
*2321 FILLER_38_87
*2322 FILLER_38_89
*2323 FILLER_38_91
*2324 FILLER_38_99
*2361 FILLER_39_0
*2374 FILLER_39_101
*2375 FILLER_39_109
*2376 FILLER_39_117
*2377 FILLER_39_119
*2378 FILLER_39_121
*2379 FILLER_39_129
*2380 FILLER_39_137
*2381 FILLER_39_145
*2382 FILLER_39_153
*2363 FILLER_39_16
*2383 FILLER_39_161
*2384 FILLER_39_169
*2385 FILLER_39_177
*2386 FILLER_39_179
*2387 FILLER_39_181
*2388 FILLER_39_189
*2389 FILLER_39_197
*2390 FILLER_39_205
*2391 FILLER_39_213
*2392 FILLER_39_221
*2393 FILLER_39_229
*2394 FILLER_39_237
*2395 FILLER_39_239
*2364 FILLER_39_24
*2396 FILLER_39_241
*2397 FILLER_39_249
*2398 FILLER_39_257
*2399 FILLER_39_265
*2400 FILLER_39_273
*2401 FILLER_39_281
*2402 FILLER_39_289
*2403 FILLER_39_297
*2404 FILLER_39_299
*2405 FILLER_39_301
*2406 FILLER_39_309
*2407 FILLER_39_317
*2365 FILLER_39_32
*2408 FILLER_39_325
*2409 FILLER_39_333
*2410 FILLER_39_341
*2411 FILLER_39_345
*2366 FILLER_39_40
*2367 FILLER_39_48
*2368 FILLER_39_56
*2369 FILLER_39_61
*2370 FILLER_39_69
*2371 FILLER_39_77
*2362 FILLER_39_8
*2372 FILLER_39_85
*2373 FILLER_39_93
*507 FILLER_3_0
*520 FILLER_3_101
*521 FILLER_3_109
*522 FILLER_3_117
*523 FILLER_3_119
*524 FILLER_3_121
*525 FILLER_3_129
*526 FILLER_3_137
*527 FILLER_3_145
*528 FILLER_3_153
*509 FILLER_3_16
*529 FILLER_3_161
*530 FILLER_3_169
*531 FILLER_3_177
*532 FILLER_3_179
*533 FILLER_3_181
*534 FILLER_3_189
*535 FILLER_3_197
*536 FILLER_3_205
*537 FILLER_3_213
*538 FILLER_3_221
*539 FILLER_3_229
*540 FILLER_3_237
*541 FILLER_3_239
*510 FILLER_3_24
*542 FILLER_3_241
*543 FILLER_3_249
*544 FILLER_3_257
*545 FILLER_3_265
*546 FILLER_3_273
*547 FILLER_3_281
*548 FILLER_3_289
*549 FILLER_3_297
*550 FILLER_3_299
*551 FILLER_3_301
*552 FILLER_3_309
*553 FILLER_3_317
*511 FILLER_3_32
*554 FILLER_3_325
*555 FILLER_3_333
*556 FILLER_3_341
*557 FILLER_3_345
*512 FILLER_3_40
*513 FILLER_3_48
*514 FILLER_3_56
*515 FILLER_3_61
*516 FILLER_3_69
*517 FILLER_3_77
*508 FILLER_3_8
*518 FILLER_3_85
*519 FILLER_3_93
*2412 FILLER_40_0
*2428 FILLER_40_107
*2429 FILLER_40_115
*2430 FILLER_40_123
*2431 FILLER_40_131
*2432 FILLER_40_139
*2433 FILLER_40_147
*2434 FILLER_40_149
*2435 FILLER_40_151
*2436 FILLER_40_159
*2414 FILLER_40_16
*2437 FILLER_40_167
*2438 FILLER_40_175
*2439 FILLER_40_183
*2440 FILLER_40_191
*2441 FILLER_40_199
*2442 FILLER_40_207
*2443 FILLER_40_209
*2444 FILLER_40_211
*2445 FILLER_40_219
*2446 FILLER_40_227
*2447 FILLER_40_235
*2415 FILLER_40_24
*2448 FILLER_40_243
*2449 FILLER_40_251
*2450 FILLER_40_259
*2451 FILLER_40_267
*2452 FILLER_40_269
*2453 FILLER_40_271
*2454 FILLER_40_279
*2416 FILLER_40_28
*2455 FILLER_40_287
*2456 FILLER_40_295
*2457 FILLER_40_303
*2417 FILLER_40_31
*2458 FILLER_40_311
*2459 FILLER_40_319
*2460 FILLER_40_327
*2461 FILLER_40_329
*2462 FILLER_40_331
*2463 FILLER_40_339
*2418 FILLER_40_39
*2419 FILLER_40_47
*2420 FILLER_40_55
*2421 FILLER_40_63
*2422 FILLER_40_71
*2423 FILLER_40_79
*2413 FILLER_40_8
*2424 FILLER_40_87
*2425 FILLER_40_89
*2426 FILLER_40_91
*2427 FILLER_40_99
*2464 FILLER_41_0
*2477 FILLER_41_101
*2478 FILLER_41_109
*2479 FILLER_41_117
*2480 FILLER_41_119
*2481 FILLER_41_121
*2482 FILLER_41_129
*2483 FILLER_41_137
*2484 FILLER_41_145
*2485 FILLER_41_153
*2466 FILLER_41_16
*2486 FILLER_41_161
*2487 FILLER_41_169
*2488 FILLER_41_177
*2489 FILLER_41_179
*2490 FILLER_41_181
*2491 FILLER_41_189
*2492 FILLER_41_197
*2493 FILLER_41_205
*2494 FILLER_41_213
*2495 FILLER_41_221
*2496 FILLER_41_229
*2497 FILLER_41_237
*2498 FILLER_41_239
*2467 FILLER_41_24
*2499 FILLER_41_241
*2500 FILLER_41_249
*2501 FILLER_41_257
*2502 FILLER_41_265
*2503 FILLER_41_273
*2504 FILLER_41_281
*2505 FILLER_41_289
*2506 FILLER_41_297
*2507 FILLER_41_299
*2508 FILLER_41_301
*2509 FILLER_41_309
*2510 FILLER_41_317
*2468 FILLER_41_32
*2511 FILLER_41_325
*2512 FILLER_41_333
*2513 FILLER_41_341
*2514 FILLER_41_345
*2469 FILLER_41_40
*2470 FILLER_41_48
*2471 FILLER_41_56
*2472 FILLER_41_61
*2473 FILLER_41_69
*2474 FILLER_41_77
*2465 FILLER_41_8
*2475 FILLER_41_85
*2476 FILLER_41_93
*2515 FILLER_42_0
*2531 FILLER_42_107
*2532 FILLER_42_115
*2533 FILLER_42_123
*2534 FILLER_42_131
*2535 FILLER_42_139
*2536 FILLER_42_147
*2537 FILLER_42_149
*2538 FILLER_42_151
*2539 FILLER_42_159
*2517 FILLER_42_16
*2540 FILLER_42_167
*2541 FILLER_42_175
*2542 FILLER_42_183
*2543 FILLER_42_191
*2544 FILLER_42_199
*2545 FILLER_42_207
*2546 FILLER_42_209
*2547 FILLER_42_211
*2548 FILLER_42_219
*2549 FILLER_42_227
*2550 FILLER_42_235
*2518 FILLER_42_24
*2551 FILLER_42_243
*2552 FILLER_42_251
*2553 FILLER_42_259
*2554 FILLER_42_267
*2555 FILLER_42_269
*2556 FILLER_42_271
*2557 FILLER_42_279
*2519 FILLER_42_28
*2558 FILLER_42_287
*2559 FILLER_42_295
*2560 FILLER_42_303
*2520 FILLER_42_31
*2561 FILLER_42_311
*2562 FILLER_42_319
*2563 FILLER_42_327
*2564 FILLER_42_329
*2565 FILLER_42_331
*2566 FILLER_42_339
*2521 FILLER_42_39
*2522 FILLER_42_47
*2523 FILLER_42_55
*2524 FILLER_42_63
*2525 FILLER_42_71
*2526 FILLER_42_79
*2516 FILLER_42_8
*2527 FILLER_42_87
*2528 FILLER_42_89
*2529 FILLER_42_91
*2530 FILLER_42_99
*2567 FILLER_43_0
*2580 FILLER_43_101
*2581 FILLER_43_109
*2582 FILLER_43_117
*2583 FILLER_43_119
*2584 FILLER_43_121
*2585 FILLER_43_129
*2586 FILLER_43_137
*2587 FILLER_43_145
*2588 FILLER_43_153
*2569 FILLER_43_16
*2589 FILLER_43_161
*2590 FILLER_43_169
*2591 FILLER_43_177
*2592 FILLER_43_179
*2593 FILLER_43_181
*2594 FILLER_43_189
*2595 FILLER_43_197
*2596 FILLER_43_205
*2597 FILLER_43_213
*2598 FILLER_43_221
*2599 FILLER_43_229
*2600 FILLER_43_237
*2601 FILLER_43_239
*2570 FILLER_43_24
*2602 FILLER_43_241
*2603 FILLER_43_249
*2604 FILLER_43_257
*2605 FILLER_43_265
*2606 FILLER_43_273
*2607 FILLER_43_281
*2608 FILLER_43_289
*2609 FILLER_43_297
*2610 FILLER_43_299
*2611 FILLER_43_301
*2612 FILLER_43_309
*2613 FILLER_43_317
*2571 FILLER_43_32
*2614 FILLER_43_325
*2615 FILLER_43_333
*2616 FILLER_43_341
*2617 FILLER_43_345
*2572 FILLER_43_40
*2573 FILLER_43_48
*2574 FILLER_43_56
*2575 FILLER_43_61
*2576 FILLER_43_69
*2577 FILLER_43_77
*2568 FILLER_43_8
*2578 FILLER_43_85
*2579 FILLER_43_93
*2618 FILLER_44_0
*2634 FILLER_44_107
*2635 FILLER_44_115
*2636 FILLER_44_123
*2637 FILLER_44_131
*2638 FILLER_44_139
*2639 FILLER_44_147
*2640 FILLER_44_149
*2641 FILLER_44_151
*2642 FILLER_44_159
*2620 FILLER_44_16
*2643 FILLER_44_167
*2644 FILLER_44_175
*2645 FILLER_44_183
*2646 FILLER_44_191
*2647 FILLER_44_199
*2648 FILLER_44_207
*2649 FILLER_44_209
*2650 FILLER_44_211
*2651 FILLER_44_219
*2652 FILLER_44_227
*2653 FILLER_44_235
*2621 FILLER_44_24
*2654 FILLER_44_243
*2655 FILLER_44_251
*2656 FILLER_44_259
*2657 FILLER_44_267
*2658 FILLER_44_269
*2659 FILLER_44_271
*2660 FILLER_44_279
*2622 FILLER_44_28
*2661 FILLER_44_287
*2662 FILLER_44_295
*2663 FILLER_44_303
*2623 FILLER_44_31
*2664 FILLER_44_311
*2665 FILLER_44_319
*2666 FILLER_44_327
*2667 FILLER_44_329
*2668 FILLER_44_331
*2669 FILLER_44_339
*2624 FILLER_44_39
*2625 FILLER_44_47
*2626 FILLER_44_55
*2627 FILLER_44_63
*2628 FILLER_44_71
*2629 FILLER_44_79
*2619 FILLER_44_8
*2630 FILLER_44_87
*2631 FILLER_44_89
*2632 FILLER_44_91
*2633 FILLER_44_99
*2670 FILLER_45_0
*2683 FILLER_45_101
*2684 FILLER_45_109
*2685 FILLER_45_117
*2686 FILLER_45_119
*2687 FILLER_45_121
*2688 FILLER_45_129
*2689 FILLER_45_137
*2690 FILLER_45_145
*2691 FILLER_45_153
*2672 FILLER_45_16
*2692 FILLER_45_161
*2693 FILLER_45_169
*2694 FILLER_45_177
*2695 FILLER_45_179
*2696 FILLER_45_181
*2697 FILLER_45_189
*2698 FILLER_45_197
*2699 FILLER_45_205
*2700 FILLER_45_213
*2701 FILLER_45_221
*2702 FILLER_45_229
*2703 FILLER_45_237
*2704 FILLER_45_239
*2673 FILLER_45_24
*2705 FILLER_45_241
*2706 FILLER_45_249
*2707 FILLER_45_257
*2708 FILLER_45_265
*2709 FILLER_45_273
*2710 FILLER_45_281
*2711 FILLER_45_289
*2712 FILLER_45_297
*2713 FILLER_45_299
*2714 FILLER_45_301
*2715 FILLER_45_309
*2716 FILLER_45_317
*2674 FILLER_45_32
*2717 FILLER_45_325
*2718 FILLER_45_333
*2719 FILLER_45_341
*2720 FILLER_45_345
*2675 FILLER_45_40
*2676 FILLER_45_48
*2677 FILLER_45_56
*2678 FILLER_45_61
*2679 FILLER_45_69
*2680 FILLER_45_77
*2671 FILLER_45_8
*2681 FILLER_45_85
*2682 FILLER_45_93
*2721 FILLER_46_0
*2737 FILLER_46_107
*2738 FILLER_46_115
*2739 FILLER_46_123
*2740 FILLER_46_131
*2741 FILLER_46_139
*2742 FILLER_46_147
*2743 FILLER_46_149
*2744 FILLER_46_151
*2745 FILLER_46_159
*2723 FILLER_46_16
*2746 FILLER_46_167
*2747 FILLER_46_175
*2748 FILLER_46_183
*2749 FILLER_46_191
*2750 FILLER_46_199
*2751 FILLER_46_207
*2752 FILLER_46_209
*2753 FILLER_46_211
*2754 FILLER_46_219
*2755 FILLER_46_227
*2756 FILLER_46_235
*2724 FILLER_46_24
*2757 FILLER_46_243
*2758 FILLER_46_251
*2759 FILLER_46_259
*2760 FILLER_46_267
*2761 FILLER_46_269
*2762 FILLER_46_271
*2763 FILLER_46_279
*2725 FILLER_46_28
*2764 FILLER_46_287
*2765 FILLER_46_295
*2766 FILLER_46_303
*2726 FILLER_46_31
*2767 FILLER_46_311
*2768 FILLER_46_319
*2769 FILLER_46_327
*2770 FILLER_46_329
*2771 FILLER_46_331
*2772 FILLER_46_339
*2727 FILLER_46_39
*2728 FILLER_46_47
*2729 FILLER_46_55
*2730 FILLER_46_63
*2731 FILLER_46_71
*2732 FILLER_46_79
*2722 FILLER_46_8
*2733 FILLER_46_87
*2734 FILLER_46_89
*2735 FILLER_46_91
*2736 FILLER_46_99
*2773 FILLER_47_0
*2786 FILLER_47_101
*2787 FILLER_47_109
*2788 FILLER_47_117
*2789 FILLER_47_119
*2790 FILLER_47_121
*2791 FILLER_47_129
*2792 FILLER_47_137
*2793 FILLER_47_145
*2794 FILLER_47_153
*2775 FILLER_47_16
*2795 FILLER_47_161
*2796 FILLER_47_169
*2797 FILLER_47_177
*2798 FILLER_47_179
*2799 FILLER_47_181
*2800 FILLER_47_189
*2801 FILLER_47_197
*2802 FILLER_47_205
*2803 FILLER_47_213
*2804 FILLER_47_221
*2805 FILLER_47_229
*2806 FILLER_47_237
*2807 FILLER_47_239
*2776 FILLER_47_24
*2808 FILLER_47_241
*2809 FILLER_47_249
*2810 FILLER_47_257
*2811 FILLER_47_265
*2812 FILLER_47_273
*2813 FILLER_47_281
*2814 FILLER_47_289
*2815 FILLER_47_297
*2816 FILLER_47_299
*2817 FILLER_47_301
*2818 FILLER_47_309
*2819 FILLER_47_317
*2777 FILLER_47_32
*2820 FILLER_47_325
*2821 FILLER_47_333
*2822 FILLER_47_341
*2823 FILLER_47_345
*2778 FILLER_47_40
*2779 FILLER_47_48
*2780 FILLER_47_56
*2781 FILLER_47_61
*2782 FILLER_47_69
*2783 FILLER_47_77
*2774 FILLER_47_8
*2784 FILLER_47_85
*2785 FILLER_47_93
*2824 FILLER_48_0
*2840 FILLER_48_107
*2841 FILLER_48_115
*2842 FILLER_48_123
*2843 FILLER_48_131
*2844 FILLER_48_139
*2845 FILLER_48_147
*2846 FILLER_48_149
*2847 FILLER_48_151
*2848 FILLER_48_159
*2826 FILLER_48_16
*2849 FILLER_48_167
*2850 FILLER_48_175
*2851 FILLER_48_183
*2852 FILLER_48_191
*2853 FILLER_48_199
*2854 FILLER_48_207
*2855 FILLER_48_209
*2856 FILLER_48_211
*2857 FILLER_48_219
*2858 FILLER_48_227
*2859 FILLER_48_235
*2827 FILLER_48_24
*2860 FILLER_48_243
*2861 FILLER_48_251
*2862 FILLER_48_259
*2863 FILLER_48_267
*2864 FILLER_48_269
*2865 FILLER_48_271
*2866 FILLER_48_279
*2828 FILLER_48_28
*2867 FILLER_48_287
*2868 FILLER_48_295
*2869 FILLER_48_303
*2829 FILLER_48_31
*2870 FILLER_48_311
*2871 FILLER_48_319
*2872 FILLER_48_327
*2873 FILLER_48_329
*2874 FILLER_48_331
*2875 FILLER_48_339
*2830 FILLER_48_39
*2831 FILLER_48_47
*2832 FILLER_48_55
*2833 FILLER_48_63
*2834 FILLER_48_71
*2835 FILLER_48_79
*2825 FILLER_48_8
*2836 FILLER_48_87
*2837 FILLER_48_89
*2838 FILLER_48_91
*2839 FILLER_48_99
*2876 FILLER_49_0
*2889 FILLER_49_101
*2890 FILLER_49_109
*2891 FILLER_49_117
*2892 FILLER_49_119
*2893 FILLER_49_121
*2894 FILLER_49_129
*2895 FILLER_49_137
*2896 FILLER_49_145
*2897 FILLER_49_153
*2878 FILLER_49_16
*2898 FILLER_49_161
*2899 FILLER_49_169
*2900 FILLER_49_177
*2901 FILLER_49_179
*2902 FILLER_49_181
*2903 FILLER_49_189
*2904 FILLER_49_197
*2905 FILLER_49_205
*2906 FILLER_49_213
*2907 FILLER_49_221
*2908 FILLER_49_229
*2909 FILLER_49_237
*2910 FILLER_49_239
*2879 FILLER_49_24
*2911 FILLER_49_241
*2912 FILLER_49_249
*2913 FILLER_49_257
*2914 FILLER_49_265
*2915 FILLER_49_273
*2916 FILLER_49_281
*2917 FILLER_49_289
*2918 FILLER_49_297
*2919 FILLER_49_299
*2920 FILLER_49_301
*2921 FILLER_49_309
*2922 FILLER_49_317
*2880 FILLER_49_32
*2923 FILLER_49_325
*2924 FILLER_49_333
*2925 FILLER_49_341
*2926 FILLER_49_345
*2881 FILLER_49_40
*2882 FILLER_49_48
*2883 FILLER_49_56
*2884 FILLER_49_61
*2885 FILLER_49_69
*2886 FILLER_49_77
*2877 FILLER_49_8
*2887 FILLER_49_85
*2888 FILLER_49_93
*558 FILLER_4_0
*574 FILLER_4_107
*575 FILLER_4_115
*576 FILLER_4_123
*577 FILLER_4_131
*578 FILLER_4_139
*579 FILLER_4_147
*580 FILLER_4_149
*581 FILLER_4_151
*582 FILLER_4_159
*560 FILLER_4_16
*583 FILLER_4_167
*584 FILLER_4_175
*585 FILLER_4_183
*586 FILLER_4_191
*587 FILLER_4_199
*588 FILLER_4_207
*589 FILLER_4_209
*590 FILLER_4_211
*591 FILLER_4_219
*592 FILLER_4_227
*593 FILLER_4_235
*561 FILLER_4_24
*594 FILLER_4_243
*595 FILLER_4_251
*596 FILLER_4_259
*597 FILLER_4_267
*598 FILLER_4_269
*599 FILLER_4_271
*600 FILLER_4_279
*562 FILLER_4_28
*601 FILLER_4_287
*602 FILLER_4_295
*603 FILLER_4_303
*563 FILLER_4_31
*604 FILLER_4_311
*605 FILLER_4_319
*606 FILLER_4_327
*607 FILLER_4_329
*608 FILLER_4_331
*609 FILLER_4_339
*564 FILLER_4_39
*565 FILLER_4_47
*566 FILLER_4_55
*567 FILLER_4_63
*568 FILLER_4_71
*569 FILLER_4_79
*559 FILLER_4_8
*570 FILLER_4_87
*571 FILLER_4_89
*572 FILLER_4_91
*573 FILLER_4_99
*2927 FILLER_50_0
*2943 FILLER_50_107
*2944 FILLER_50_115
*2945 FILLER_50_123
*2946 FILLER_50_131
*2947 FILLER_50_139
*2948 FILLER_50_147
*2949 FILLER_50_149
*2950 FILLER_50_151
*2951 FILLER_50_159
*2929 FILLER_50_16
*2952 FILLER_50_167
*2953 FILLER_50_175
*2954 FILLER_50_183
*2955 FILLER_50_191
*2956 FILLER_50_199
*2957 FILLER_50_207
*2958 FILLER_50_209
*2959 FILLER_50_211
*2960 FILLER_50_219
*2961 FILLER_50_227
*2962 FILLER_50_235
*2930 FILLER_50_24
*2963 FILLER_50_243
*2964 FILLER_50_251
*2965 FILLER_50_259
*2966 FILLER_50_267
*2967 FILLER_50_269
*2968 FILLER_50_271
*2969 FILLER_50_279
*2931 FILLER_50_28
*2970 FILLER_50_287
*2971 FILLER_50_295
*2972 FILLER_50_303
*2932 FILLER_50_31
*2973 FILLER_50_311
*2974 FILLER_50_319
*2975 FILLER_50_327
*2976 FILLER_50_329
*2977 FILLER_50_331
*2978 FILLER_50_339
*2933 FILLER_50_39
*2934 FILLER_50_47
*2935 FILLER_50_55
*2936 FILLER_50_63
*2937 FILLER_50_71
*2938 FILLER_50_79
*2928 FILLER_50_8
*2939 FILLER_50_87
*2940 FILLER_50_89
*2941 FILLER_50_91
*2942 FILLER_50_99
*2979 FILLER_51_0
*2992 FILLER_51_101
*2993 FILLER_51_109
*2994 FILLER_51_117
*2995 FILLER_51_119
*2996 FILLER_51_121
*2997 FILLER_51_129
*2998 FILLER_51_137
*2999 FILLER_51_145
*3000 FILLER_51_153
*2981 FILLER_51_16
*3001 FILLER_51_161
*3002 FILLER_51_169
*3003 FILLER_51_177
*3004 FILLER_51_179
*3005 FILLER_51_181
*3006 FILLER_51_189
*3007 FILLER_51_197
*3008 FILLER_51_205
*3009 FILLER_51_213
*3010 FILLER_51_221
*3011 FILLER_51_229
*3012 FILLER_51_237
*3013 FILLER_51_239
*2982 FILLER_51_24
*3014 FILLER_51_241
*3015 FILLER_51_249
*3016 FILLER_51_257
*3017 FILLER_51_265
*3018 FILLER_51_273
*3019 FILLER_51_281
*3020 FILLER_51_289
*3021 FILLER_51_297
*3022 FILLER_51_299
*3023 FILLER_51_301
*3024 FILLER_51_309
*3025 FILLER_51_317
*2983 FILLER_51_32
*3026 FILLER_51_325
*3027 FILLER_51_333
*3028 FILLER_51_341
*3029 FILLER_51_345
*2984 FILLER_51_40
*2985 FILLER_51_48
*2986 FILLER_51_56
*2987 FILLER_51_61
*2988 FILLER_51_69
*2989 FILLER_51_77
*2980 FILLER_51_8
*2990 FILLER_51_85
*2991 FILLER_51_93
*3030 FILLER_52_0
*3046 FILLER_52_107
*3047 FILLER_52_115
*3048 FILLER_52_123
*3049 FILLER_52_131
*3050 FILLER_52_139
*3051 FILLER_52_147
*3052 FILLER_52_149
*3053 FILLER_52_151
*3054 FILLER_52_159
*3032 FILLER_52_16
*3055 FILLER_52_167
*3056 FILLER_52_175
*3057 FILLER_52_183
*3058 FILLER_52_191
*3059 FILLER_52_199
*3060 FILLER_52_207
*3061 FILLER_52_209
*3062 FILLER_52_211
*3063 FILLER_52_219
*3064 FILLER_52_227
*3065 FILLER_52_235
*3033 FILLER_52_24
*3066 FILLER_52_243
*3067 FILLER_52_251
*3068 FILLER_52_259
*3069 FILLER_52_267
*3070 FILLER_52_269
*3071 FILLER_52_271
*3072 FILLER_52_279
*3034 FILLER_52_28
*3073 FILLER_52_287
*3074 FILLER_52_295
*3075 FILLER_52_303
*3035 FILLER_52_31
*3076 FILLER_52_311
*3077 FILLER_52_319
*3078 FILLER_52_327
*3079 FILLER_52_329
*3080 FILLER_52_331
*3081 FILLER_52_339
*3036 FILLER_52_39
*3037 FILLER_52_47
*3038 FILLER_52_55
*3039 FILLER_52_63
*3040 FILLER_52_71
*3041 FILLER_52_79
*3031 FILLER_52_8
*3042 FILLER_52_87
*3043 FILLER_52_89
*3044 FILLER_52_91
*3045 FILLER_52_99
*3082 FILLER_53_0
*3095 FILLER_53_101
*3096 FILLER_53_109
*3097 FILLER_53_117
*3098 FILLER_53_119
*3099 FILLER_53_121
*3100 FILLER_53_129
*3101 FILLER_53_137
*3102 FILLER_53_145
*3103 FILLER_53_153
*3084 FILLER_53_16
*3104 FILLER_53_161
*3105 FILLER_53_169
*3106 FILLER_53_177
*3107 FILLER_53_179
*3108 FILLER_53_181
*3109 FILLER_53_189
*3110 FILLER_53_197
*3111 FILLER_53_205
*3112 FILLER_53_213
*3113 FILLER_53_221
*3114 FILLER_53_229
*3115 FILLER_53_237
*3116 FILLER_53_239
*3085 FILLER_53_24
*3117 FILLER_53_241
*3118 FILLER_53_249
*3119 FILLER_53_257
*3120 FILLER_53_265
*3121 FILLER_53_273
*3122 FILLER_53_281
*3123 FILLER_53_289
*3124 FILLER_53_297
*3125 FILLER_53_299
*3126 FILLER_53_301
*3127 FILLER_53_309
*3128 FILLER_53_317
*3086 FILLER_53_32
*3129 FILLER_53_325
*3130 FILLER_53_333
*3131 FILLER_53_341
*3132 FILLER_53_345
*3087 FILLER_53_40
*3088 FILLER_53_48
*3089 FILLER_53_56
*3090 FILLER_53_61
*3091 FILLER_53_69
*3092 FILLER_53_77
*3083 FILLER_53_8
*3093 FILLER_53_85
*3094 FILLER_53_93
*3133 FILLER_54_0
*3149 FILLER_54_107
*3150 FILLER_54_115
*3151 FILLER_54_123
*3152 FILLER_54_131
*3153 FILLER_54_139
*3154 FILLER_54_147
*3155 FILLER_54_149
*3156 FILLER_54_151
*3157 FILLER_54_159
*3135 FILLER_54_16
*3158 FILLER_54_167
*3159 FILLER_54_175
*3160 FILLER_54_183
*3161 FILLER_54_191
*3162 FILLER_54_199
*3163 FILLER_54_207
*3164 FILLER_54_209
*3165 FILLER_54_211
*3166 FILLER_54_219
*3167 FILLER_54_227
*3168 FILLER_54_235
*3136 FILLER_54_24
*3169 FILLER_54_243
*3170 FILLER_54_251
*3171 FILLER_54_259
*3172 FILLER_54_267
*3173 FILLER_54_269
*3174 FILLER_54_271
*3175 FILLER_54_279
*3137 FILLER_54_28
*3176 FILLER_54_287
*3177 FILLER_54_295
*3178 FILLER_54_303
*3138 FILLER_54_31
*3179 FILLER_54_311
*3180 FILLER_54_319
*3181 FILLER_54_327
*3182 FILLER_54_329
*3183 FILLER_54_331
*3184 FILLER_54_339
*3139 FILLER_54_39
*3140 FILLER_54_47
*3141 FILLER_54_55
*3142 FILLER_54_63
*3143 FILLER_54_71
*3144 FILLER_54_79
*3134 FILLER_54_8
*3145 FILLER_54_87
*3146 FILLER_54_89
*3147 FILLER_54_91
*3148 FILLER_54_99
*3185 FILLER_55_0
*3198 FILLER_55_101
*3199 FILLER_55_109
*3200 FILLER_55_117
*3201 FILLER_55_119
*3202 FILLER_55_121
*3203 FILLER_55_129
*3204 FILLER_55_137
*3205 FILLER_55_145
*3206 FILLER_55_153
*3187 FILLER_55_16
*3207 FILLER_55_161
*3208 FILLER_55_169
*3209 FILLER_55_177
*3210 FILLER_55_179
*3211 FILLER_55_181
*3212 FILLER_55_189
*3213 FILLER_55_197
*3214 FILLER_55_205
*3215 FILLER_55_213
*3216 FILLER_55_221
*3217 FILLER_55_229
*3218 FILLER_55_237
*3219 FILLER_55_239
*3188 FILLER_55_24
*3220 FILLER_55_241
*3221 FILLER_55_249
*3222 FILLER_55_257
*3223 FILLER_55_265
*3224 FILLER_55_273
*3225 FILLER_55_281
*3226 FILLER_55_289
*3227 FILLER_55_297
*3228 FILLER_55_299
*3229 FILLER_55_301
*3230 FILLER_55_309
*3231 FILLER_55_317
*3189 FILLER_55_32
*3232 FILLER_55_325
*3233 FILLER_55_333
*3234 FILLER_55_341
*3235 FILLER_55_345
*3190 FILLER_55_40
*3191 FILLER_55_48
*3192 FILLER_55_56
*3193 FILLER_55_61
*3194 FILLER_55_69
*3195 FILLER_55_77
*3186 FILLER_55_8
*3196 FILLER_55_85
*3197 FILLER_55_93
*3236 FILLER_56_0
*3252 FILLER_56_107
*3253 FILLER_56_115
*3254 FILLER_56_123
*3255 FILLER_56_131
*3256 FILLER_56_139
*3257 FILLER_56_147
*3258 FILLER_56_149
*3259 FILLER_56_151
*3260 FILLER_56_159
*3238 FILLER_56_16
*3261 FILLER_56_167
*3262 FILLER_56_175
*3263 FILLER_56_183
*3264 FILLER_56_191
*3265 FILLER_56_199
*3266 FILLER_56_207
*3267 FILLER_56_209
*3268 FILLER_56_211
*3269 FILLER_56_219
*3270 FILLER_56_227
*3271 FILLER_56_235
*3239 FILLER_56_24
*3272 FILLER_56_243
*3273 FILLER_56_251
*3274 FILLER_56_259
*3275 FILLER_56_267
*3276 FILLER_56_269
*3277 FILLER_56_271
*3278 FILLER_56_279
*3240 FILLER_56_28
*3279 FILLER_56_287
*3280 FILLER_56_295
*3281 FILLER_56_303
*3241 FILLER_56_31
*3282 FILLER_56_311
*3283 FILLER_56_319
*3284 FILLER_56_327
*3285 FILLER_56_329
*3286 FILLER_56_331
*3287 FILLER_56_339
*3242 FILLER_56_39
*3243 FILLER_56_47
*3244 FILLER_56_55
*3245 FILLER_56_63
*3246 FILLER_56_71
*3247 FILLER_56_79
*3237 FILLER_56_8
*3248 FILLER_56_87
*3249 FILLER_56_89
*3250 FILLER_56_91
*3251 FILLER_56_99
*3288 FILLER_57_0
*3305 FILLER_57_107
*3306 FILLER_57_115
*3307 FILLER_57_119
*3308 FILLER_57_121
*3309 FILLER_57_129
*3310 FILLER_57_137
*3311 FILLER_57_145
*3312 FILLER_57_149
*3313 FILLER_57_151
*3314 FILLER_57_159
*3290 FILLER_57_16
*3315 FILLER_57_167
*3316 FILLER_57_175
*3317 FILLER_57_179
*3318 FILLER_57_181
*3319 FILLER_57_189
*3320 FILLER_57_197
*3321 FILLER_57_205
*3322 FILLER_57_209
*3323 FILLER_57_211
*3324 FILLER_57_219
*3325 FILLER_57_227
*3326 FILLER_57_235
*3327 FILLER_57_239
*3291 FILLER_57_24
*3328 FILLER_57_241
*3329 FILLER_57_249
*3330 FILLER_57_257
*3331 FILLER_57_265
*3332 FILLER_57_269
*3333 FILLER_57_271
*3334 FILLER_57_279
*3292 FILLER_57_28
*3335 FILLER_57_287
*3336 FILLER_57_295
*3337 FILLER_57_299
*3338 FILLER_57_301
*3339 FILLER_57_309
*3293 FILLER_57_31
*3340 FILLER_57_317
*3341 FILLER_57_325
*3342 FILLER_57_329
*3343 FILLER_57_331
*3344 FILLER_57_339
*3294 FILLER_57_39
*3295 FILLER_57_47
*3296 FILLER_57_55
*3297 FILLER_57_59
*3298 FILLER_57_61
*3299 FILLER_57_69
*3300 FILLER_57_77
*3289 FILLER_57_8
*3301 FILLER_57_85
*3302 FILLER_57_89
*3303 FILLER_57_91
*3304 FILLER_57_99
*610 FILLER_5_0
*623 FILLER_5_101
*624 FILLER_5_109
*625 FILLER_5_117
*626 FILLER_5_119
*627 FILLER_5_121
*628 FILLER_5_129
*629 FILLER_5_137
*630 FILLER_5_145
*631 FILLER_5_153
*612 FILLER_5_16
*632 FILLER_5_161
*633 FILLER_5_169
*634 FILLER_5_177
*635 FILLER_5_179
*636 FILLER_5_181
*637 FILLER_5_189
*638 FILLER_5_197
*639 FILLER_5_205
*640 FILLER_5_213
*641 FILLER_5_221
*642 FILLER_5_229
*643 FILLER_5_237
*644 FILLER_5_239
*613 FILLER_5_24
*645 FILLER_5_241
*646 FILLER_5_249
*647 FILLER_5_257
*648 FILLER_5_265
*649 FILLER_5_273
*650 FILLER_5_281
*651 FILLER_5_289
*652 FILLER_5_297
*653 FILLER_5_299
*654 FILLER_5_301
*655 FILLER_5_309
*656 FILLER_5_317
*614 FILLER_5_32
*657 FILLER_5_325
*658 FILLER_5_333
*659 FILLER_5_341
*660 FILLER_5_345
*615 FILLER_5_40
*616 FILLER_5_48
*617 FILLER_5_56
*618 FILLER_5_61
*619 FILLER_5_69
*620 FILLER_5_77
*611 FILLER_5_8
*621 FILLER_5_85
*622 FILLER_5_93
*661 FILLER_6_0
*677 FILLER_6_107
*678 FILLER_6_115
*679 FILLER_6_123
*680 FILLER_6_131
*681 FILLER_6_139
*682 FILLER_6_147
*683 FILLER_6_149
*684 FILLER_6_151
*685 FILLER_6_159
*663 FILLER_6_16
*686 FILLER_6_167
*687 FILLER_6_175
*688 FILLER_6_183
*689 FILLER_6_191
*690 FILLER_6_199
*691 FILLER_6_207
*692 FILLER_6_209
*693 FILLER_6_211
*694 FILLER_6_219
*695 FILLER_6_227
*696 FILLER_6_235
*664 FILLER_6_24
*697 FILLER_6_243
*698 FILLER_6_251
*699 FILLER_6_259
*700 FILLER_6_267
*701 FILLER_6_269
*702 FILLER_6_271
*703 FILLER_6_279
*665 FILLER_6_28
*704 FILLER_6_287
*705 FILLER_6_295
*706 FILLER_6_303
*666 FILLER_6_31
*707 FILLER_6_311
*708 FILLER_6_319
*709 FILLER_6_327
*710 FILLER_6_329
*711 FILLER_6_331
*712 FILLER_6_339
*667 FILLER_6_39
*668 FILLER_6_47
*669 FILLER_6_55
*670 FILLER_6_63
*671 FILLER_6_71
*672 FILLER_6_79
*662 FILLER_6_8
*673 FILLER_6_87
*674 FILLER_6_89
*675 FILLER_6_91
*676 FILLER_6_99
*713 FILLER_7_0
*726 FILLER_7_101
*727 FILLER_7_109
*728 FILLER_7_117
*729 FILLER_7_119
*730 FILLER_7_121
*731 FILLER_7_129
*732 FILLER_7_137
*733 FILLER_7_145
*734 FILLER_7_153
*715 FILLER_7_16
*735 FILLER_7_161
*736 FILLER_7_169
*737 FILLER_7_177
*738 FILLER_7_179
*739 FILLER_7_181
*740 FILLER_7_189
*741 FILLER_7_197
*742 FILLER_7_205
*743 FILLER_7_213
*744 FILLER_7_221
*745 FILLER_7_229
*746 FILLER_7_237
*747 FILLER_7_239
*716 FILLER_7_24
*748 FILLER_7_241
*749 FILLER_7_249
*750 FILLER_7_257
*751 FILLER_7_265
*752 FILLER_7_273
*753 FILLER_7_281
*754 FILLER_7_289
*755 FILLER_7_297
*756 FILLER_7_299
*757 FILLER_7_301
*758 FILLER_7_309
*759 FILLER_7_317
*717 FILLER_7_32
*760 FILLER_7_325
*761 FILLER_7_333
*762 FILLER_7_341
*763 FILLER_7_345
*718 FILLER_7_40
*719 FILLER_7_48
*720 FILLER_7_56
*721 FILLER_7_61
*722 FILLER_7_69
*723 FILLER_7_77
*714 FILLER_7_8
*724 FILLER_7_85
*725 FILLER_7_93
*764 FILLER_8_0
*780 FILLER_8_107
*781 FILLER_8_115
*782 FILLER_8_123
*783 FILLER_8_131
*784 FILLER_8_139
*785 FILLER_8_147
*786 FILLER_8_149
*787 FILLER_8_151
*788 FILLER_8_159
*766 FILLER_8_16
*789 FILLER_8_167
*790 FILLER_8_175
*791 FILLER_8_183
*792 FILLER_8_191
*793 FILLER_8_199
*794 FILLER_8_207
*795 FILLER_8_209
*796 FILLER_8_211
*797 FILLER_8_219
*798 FILLER_8_227
*799 FILLER_8_235
*767 FILLER_8_24
*800 FILLER_8_243
*801 FILLER_8_251
*802 FILLER_8_259
*803 FILLER_8_267
*804 FILLER_8_269
*805 FILLER_8_271
*806 FILLER_8_279
*768 FILLER_8_28
*807 FILLER_8_287
*808 FILLER_8_295
*809 FILLER_8_303
*769 FILLER_8_31
*810 FILLER_8_311
*811 FILLER_8_319
*812 FILLER_8_327
*813 FILLER_8_329
*814 FILLER_8_331
*815 FILLER_8_339
*770 FILLER_8_39
*771 FILLER_8_47
*772 FILLER_8_55
*773 FILLER_8_63
*774 FILLER_8_71
*775 FILLER_8_79
*765 FILLER_8_8
*776 FILLER_8_87
*777 FILLER_8_89
*778 FILLER_8_91
*779 FILLER_8_99
*816 FILLER_9_0
*829 FILLER_9_101
*830 FILLER_9_109
*831 FILLER_9_117
*832 FILLER_9_119
*833 FILLER_9_121
*834 FILLER_9_129
*835 FILLER_9_137
*836 FILLER_9_145
*837 FILLER_9_153
*818 FILLER_9_16
*838 FILLER_9_161
*839 FILLER_9_169
*840 FILLER_9_177
*841 FILLER_9_179
*842 FILLER_9_181
*843 FILLER_9_189
*844 FILLER_9_197
*845 FILLER_9_205
*846 FILLER_9_213
*847 FILLER_9_221
*848 FILLER_9_229
*849 FILLER_9_237
*850 FILLER_9_239
*819 FILLER_9_24
*851 FILLER_9_241
*852 FILLER_9_249
*853 FILLER_9_257
*854 FILLER_9_265
*855 FILLER_9_273
*856 FILLER_9_281
*857 FILLER_9_289
*858 FILLER_9_297
*859 FILLER_9_299
*860 FILLER_9_301
*861 FILLER_9_309
*862 FILLER_9_317
*820 FILLER_9_32
*863 FILLER_9_325
*864 FILLER_9_333
*865 FILLER_9_341
*866 FILLER_9_345
*821 FILLER_9_40
*822 FILLER_9_48
*823 FILLER_9_56
*824 FILLER_9_61
*825 FILLER_9_69
*826 FILLER_9_77
*817 FILLER_9_8
*827 FILLER_9_85
*828 FILLER_9_93
*17 TAP_TAPCELL_ROW_0_0
*18 TAP_TAPCELL_ROW_0_1
*27 TAP_TAPCELL_ROW_0_10
*19 TAP_TAPCELL_ROW_0_2
*20 TAP_TAPCELL_ROW_0_3
*21 TAP_TAPCELL_ROW_0_4
*22 TAP_TAPCELL_ROW_0_5
*23 TAP_TAPCELL_ROW_0_6
*24 TAP_TAPCELL_ROW_0_7
*25 TAP_TAPCELL_ROW_0_8
*26 TAP_TAPCELL_ROW_0_9
*77 TAP_TAPCELL_ROW_10_60
*78 TAP_TAPCELL_ROW_10_61
*79 TAP_TAPCELL_ROW_10_62
*80 TAP_TAPCELL_ROW_10_63
*81 TAP_TAPCELL_ROW_10_64
*82 TAP_TAPCELL_ROW_10_65
*83 TAP_TAPCELL_ROW_11_66
*84 TAP_TAPCELL_ROW_11_67
*85 TAP_TAPCELL_ROW_11_68
*86 TAP_TAPCELL_ROW_11_69
*87 TAP_TAPCELL_ROW_11_70
*88 TAP_TAPCELL_ROW_12_71
*89 TAP_TAPCELL_ROW_12_72
*90 TAP_TAPCELL_ROW_12_73
*91 TAP_TAPCELL_ROW_12_74
*92 TAP_TAPCELL_ROW_12_75
*93 TAP_TAPCELL_ROW_12_76
*94 TAP_TAPCELL_ROW_13_77
*95 TAP_TAPCELL_ROW_13_78
*96 TAP_TAPCELL_ROW_13_79
*97 TAP_TAPCELL_ROW_13_80
*98 TAP_TAPCELL_ROW_13_81
*99 TAP_TAPCELL_ROW_14_82
*100 TAP_TAPCELL_ROW_14_83
*101 TAP_TAPCELL_ROW_14_84
*102 TAP_TAPCELL_ROW_14_85
*103 TAP_TAPCELL_ROW_14_86
*104 TAP_TAPCELL_ROW_14_87
*105 TAP_TAPCELL_ROW_15_88
*106 TAP_TAPCELL_ROW_15_89
*107 TAP_TAPCELL_ROW_15_90
*108 TAP_TAPCELL_ROW_15_91
*109 TAP_TAPCELL_ROW_15_92
*110 TAP_TAPCELL_ROW_16_93
*111 TAP_TAPCELL_ROW_16_94
*112 TAP_TAPCELL_ROW_16_95
*113 TAP_TAPCELL_ROW_16_96
*114 TAP_TAPCELL_ROW_16_97
*115 TAP_TAPCELL_ROW_16_98
*117 TAP_TAPCELL_ROW_17_100
*118 TAP_TAPCELL_ROW_17_101
*119 TAP_TAPCELL_ROW_17_102
*120 TAP_TAPCELL_ROW_17_103
*116 TAP_TAPCELL_ROW_17_99
*121 TAP_TAPCELL_ROW_18_104
*122 TAP_TAPCELL_ROW_18_105
*123 TAP_TAPCELL_ROW_18_106
*124 TAP_TAPCELL_ROW_18_107
*125 TAP_TAPCELL_ROW_18_108
*126 TAP_TAPCELL_ROW_18_109
*127 TAP_TAPCELL_ROW_19_110
*128 TAP_TAPCELL_ROW_19_111
*129 TAP_TAPCELL_ROW_19_112
*130 TAP_TAPCELL_ROW_19_113
*131 TAP_TAPCELL_ROW_19_114
*28 TAP_TAPCELL_ROW_1_11
*29 TAP_TAPCELL_ROW_1_12
*30 TAP_TAPCELL_ROW_1_13
*31 TAP_TAPCELL_ROW_1_14
*32 TAP_TAPCELL_ROW_1_15
*132 TAP_TAPCELL_ROW_20_115
*133 TAP_TAPCELL_ROW_20_116
*134 TAP_TAPCELL_ROW_20_117
*135 TAP_TAPCELL_ROW_20_118
*136 TAP_TAPCELL_ROW_20_119
*137 TAP_TAPCELL_ROW_20_120
*138 TAP_TAPCELL_ROW_21_121
*139 TAP_TAPCELL_ROW_21_122
*140 TAP_TAPCELL_ROW_21_123
*141 TAP_TAPCELL_ROW_21_124
*142 TAP_TAPCELL_ROW_21_125
*143 TAP_TAPCELL_ROW_22_126
*144 TAP_TAPCELL_ROW_22_127
*145 TAP_TAPCELL_ROW_22_128
*146 TAP_TAPCELL_ROW_22_129
*147 TAP_TAPCELL_ROW_22_130
*148 TAP_TAPCELL_ROW_22_131
*149 TAP_TAPCELL_ROW_23_132
*150 TAP_TAPCELL_ROW_23_133
*151 TAP_TAPCELL_ROW_23_134
*152 TAP_TAPCELL_ROW_23_135
*153 TAP_TAPCELL_ROW_23_136
*154 TAP_TAPCELL_ROW_24_137
*155 TAP_TAPCELL_ROW_24_138
*156 TAP_TAPCELL_ROW_24_139
*157 TAP_TAPCELL_ROW_24_140
*158 TAP_TAPCELL_ROW_24_141
*159 TAP_TAPCELL_ROW_24_142
*160 TAP_TAPCELL_ROW_25_143
*161 TAP_TAPCELL_ROW_25_144
*162 TAP_TAPCELL_ROW_25_145
*163 TAP_TAPCELL_ROW_25_146
*164 TAP_TAPCELL_ROW_25_147
*165 TAP_TAPCELL_ROW_26_148
*166 TAP_TAPCELL_ROW_26_149
*167 TAP_TAPCELL_ROW_26_150
*168 TAP_TAPCELL_ROW_26_151
*169 TAP_TAPCELL_ROW_26_152
*170 TAP_TAPCELL_ROW_26_153
*171 TAP_TAPCELL_ROW_27_154
*172 TAP_TAPCELL_ROW_27_155
*173 TAP_TAPCELL_ROW_27_156
*174 TAP_TAPCELL_ROW_27_157
*175 TAP_TAPCELL_ROW_27_158
*176 TAP_TAPCELL_ROW_28_159
*177 TAP_TAPCELL_ROW_28_160
*178 TAP_TAPCELL_ROW_28_161
*179 TAP_TAPCELL_ROW_28_162
*180 TAP_TAPCELL_ROW_28_163
*181 TAP_TAPCELL_ROW_28_164
*182 TAP_TAPCELL_ROW_29_165
*183 TAP_TAPCELL_ROW_29_166
*184 TAP_TAPCELL_ROW_29_167
*185 TAP_TAPCELL_ROW_29_168
*186 TAP_TAPCELL_ROW_29_169
*33 TAP_TAPCELL_ROW_2_16
*34 TAP_TAPCELL_ROW_2_17
*35 TAP_TAPCELL_ROW_2_18
*36 TAP_TAPCELL_ROW_2_19
*37 TAP_TAPCELL_ROW_2_20
*38 TAP_TAPCELL_ROW_2_21
*187 TAP_TAPCELL_ROW_30_170
*188 TAP_TAPCELL_ROW_30_171
*189 TAP_TAPCELL_ROW_30_172
*190 TAP_TAPCELL_ROW_30_173
*191 TAP_TAPCELL_ROW_30_174
*192 TAP_TAPCELL_ROW_30_175
*193 TAP_TAPCELL_ROW_31_176
*194 TAP_TAPCELL_ROW_31_177
*195 TAP_TAPCELL_ROW_31_178
*196 TAP_TAPCELL_ROW_31_179
*197 TAP_TAPCELL_ROW_31_180
*198 TAP_TAPCELL_ROW_32_181
*199 TAP_TAPCELL_ROW_32_182
*200 TAP_TAPCELL_ROW_32_183
*201 TAP_TAPCELL_ROW_32_184
*202 TAP_TAPCELL_ROW_32_185
*203 TAP_TAPCELL_ROW_32_186
*204 TAP_TAPCELL_ROW_33_187
*205 TAP_TAPCELL_ROW_33_188
*206 TAP_TAPCELL_ROW_33_189
*207 TAP_TAPCELL_ROW_33_190
*208 TAP_TAPCELL_ROW_33_191
*209 TAP_TAPCELL_ROW_34_192
*210 TAP_TAPCELL_ROW_34_193
*211 TAP_TAPCELL_ROW_34_194
*212 TAP_TAPCELL_ROW_34_195
*213 TAP_TAPCELL_ROW_34_196
*214 TAP_TAPCELL_ROW_34_197
*215 TAP_TAPCELL_ROW_35_198
*216 TAP_TAPCELL_ROW_35_199
*217 TAP_TAPCELL_ROW_35_200
*218 TAP_TAPCELL_ROW_35_201
*219 TAP_TAPCELL_ROW_35_202
*220 TAP_TAPCELL_ROW_36_203
*221 TAP_TAPCELL_ROW_36_204
*222 TAP_TAPCELL_ROW_36_205
*223 TAP_TAPCELL_ROW_36_206
*224 TAP_TAPCELL_ROW_36_207
*225 TAP_TAPCELL_ROW_36_208
*226 TAP_TAPCELL_ROW_37_209
*227 TAP_TAPCELL_ROW_37_210
*228 TAP_TAPCELL_ROW_37_211
*229 TAP_TAPCELL_ROW_37_212
*230 TAP_TAPCELL_ROW_37_213
*231 TAP_TAPCELL_ROW_38_214
*232 TAP_TAPCELL_ROW_38_215
*233 TAP_TAPCELL_ROW_38_216
*234 TAP_TAPCELL_ROW_38_217
*235 TAP_TAPCELL_ROW_38_218
*236 TAP_TAPCELL_ROW_38_219
*237 TAP_TAPCELL_ROW_39_220
*238 TAP_TAPCELL_ROW_39_221
*239 TAP_TAPCELL_ROW_39_222
*240 TAP_TAPCELL_ROW_39_223
*241 TAP_TAPCELL_ROW_39_224
*39 TAP_TAPCELL_ROW_3_22
*40 TAP_TAPCELL_ROW_3_23
*41 TAP_TAPCELL_ROW_3_24
*42 TAP_TAPCELL_ROW_3_25
*43 TAP_TAPCELL_ROW_3_26
*242 TAP_TAPCELL_ROW_40_225
*243 TAP_TAPCELL_ROW_40_226
*244 TAP_TAPCELL_ROW_40_227
*245 TAP_TAPCELL_ROW_40_228
*246 TAP_TAPCELL_ROW_40_229
*247 TAP_TAPCELL_ROW_40_230
*248 TAP_TAPCELL_ROW_41_231
*249 TAP_TAPCELL_ROW_41_232
*250 TAP_TAPCELL_ROW_41_233
*251 TAP_TAPCELL_ROW_41_234
*252 TAP_TAPCELL_ROW_41_235
*253 TAP_TAPCELL_ROW_42_236
*254 TAP_TAPCELL_ROW_42_237
*255 TAP_TAPCELL_ROW_42_238
*256 TAP_TAPCELL_ROW_42_239
*257 TAP_TAPCELL_ROW_42_240
*258 TAP_TAPCELL_ROW_42_241
*259 TAP_TAPCELL_ROW_43_242
*260 TAP_TAPCELL_ROW_43_243
*261 TAP_TAPCELL_ROW_43_244
*262 TAP_TAPCELL_ROW_43_245
*263 TAP_TAPCELL_ROW_43_246
*264 TAP_TAPCELL_ROW_44_247
*265 TAP_TAPCELL_ROW_44_248
*266 TAP_TAPCELL_ROW_44_249
*267 TAP_TAPCELL_ROW_44_250
*268 TAP_TAPCELL_ROW_44_251
*269 TAP_TAPCELL_ROW_44_252
*270 TAP_TAPCELL_ROW_45_253
*271 TAP_TAPCELL_ROW_45_254
*272 TAP_TAPCELL_ROW_45_255
*273 TAP_TAPCELL_ROW_45_256
*274 TAP_TAPCELL_ROW_45_257
*275 TAP_TAPCELL_ROW_46_258
*276 TAP_TAPCELL_ROW_46_259
*277 TAP_TAPCELL_ROW_46_260
*278 TAP_TAPCELL_ROW_46_261
*279 TAP_TAPCELL_ROW_46_262
*280 TAP_TAPCELL_ROW_46_263
*281 TAP_TAPCELL_ROW_47_264
*282 TAP_TAPCELL_ROW_47_265
*283 TAP_TAPCELL_ROW_47_266
*284 TAP_TAPCELL_ROW_47_267
*285 TAP_TAPCELL_ROW_47_268
*286 TAP_TAPCELL_ROW_48_269
*287 TAP_TAPCELL_ROW_48_270
*288 TAP_TAPCELL_ROW_48_271
*289 TAP_TAPCELL_ROW_48_272
*290 TAP_TAPCELL_ROW_48_273
*291 TAP_TAPCELL_ROW_48_274
*292 TAP_TAPCELL_ROW_49_275
*293 TAP_TAPCELL_ROW_49_276
*294 TAP_TAPCELL_ROW_49_277
*295 TAP_TAPCELL_ROW_49_278
*296 TAP_TAPCELL_ROW_49_279
*44 TAP_TAPCELL_ROW_4_27
*45 TAP_TAPCELL_ROW_4_28
*46 TAP_TAPCELL_ROW_4_29
*47 TAP_TAPCELL_ROW_4_30
*48 TAP_TAPCELL_ROW_4_31
*49 TAP_TAPCELL_ROW_4_32
*297 TAP_TAPCELL_ROW_50_280
*298 TAP_TAPCELL_ROW_50_281
*299 TAP_TAPCELL_ROW_50_282
*300 TAP_TAPCELL_ROW_50_283
*301 TAP_TAPCELL_ROW_50_284
*302 TAP_TAPCELL_ROW_50_285
*303 TAP_TAPCELL_ROW_51_286
*304 TAP_TAPCELL_ROW_51_287
*305 TAP_TAPCELL_ROW_51_288
*306 TAP_TAPCELL_ROW_51_289
*307 TAP_TAPCELL_ROW_51_290
*308 TAP_TAPCELL_ROW_52_291
*309 TAP_TAPCELL_ROW_52_292
*310 TAP_TAPCELL_ROW_52_293
*311 TAP_TAPCELL_ROW_52_294
*312 TAP_TAPCELL_ROW_52_295
*313 TAP_TAPCELL_ROW_52_296
*314 TAP_TAPCELL_ROW_53_297
*315 TAP_TAPCELL_ROW_53_298
*316 TAP_TAPCELL_ROW_53_299
*317 TAP_TAPCELL_ROW_53_300
*318 TAP_TAPCELL_ROW_53_301
*319 TAP_TAPCELL_ROW_54_302
*320 TAP_TAPCELL_ROW_54_303
*321 TAP_TAPCELL_ROW_54_304
*322 TAP_TAPCELL_ROW_54_305
*323 TAP_TAPCELL_ROW_54_306
*324 TAP_TAPCELL_ROW_54_307
*325 TAP_TAPCELL_ROW_55_308
*326 TAP_TAPCELL_ROW_55_309
*327 TAP_TAPCELL_ROW_55_310
*328 TAP_TAPCELL_ROW_55_311
*329 TAP_TAPCELL_ROW_55_312
*330 TAP_TAPCELL_ROW_56_313
*331 TAP_TAPCELL_ROW_56_314
*332 TAP_TAPCELL_ROW_56_315
*333 TAP_TAPCELL_ROW_56_316
*334 TAP_TAPCELL_ROW_56_317
*335 TAP_TAPCELL_ROW_56_318
*336 TAP_TAPCELL_ROW_57_319
*337 TAP_TAPCELL_ROW_57_320
*338 TAP_TAPCELL_ROW_57_321
*339 TAP_TAPCELL_ROW_57_322
*340 TAP_TAPCELL_ROW_57_323
*341 TAP_TAPCELL_ROW_57_324
*342 TAP_TAPCELL_ROW_57_325
*343 TAP_TAPCELL_ROW_57_326
*344 TAP_TAPCELL_ROW_57_327
*345 TAP_TAPCELL_ROW_57_328
*346 TAP_TAPCELL_ROW_57_329
*50 TAP_TAPCELL_ROW_5_33
*51 TAP_TAPCELL_ROW_5_34
*52 TAP_TAPCELL_ROW_5_35
*53 TAP_TAPCELL_ROW_5_36
*54 TAP_TAPCELL_ROW_5_37
*55 TAP_TAPCELL_ROW_6_38
*56 TAP_TAPCELL_ROW_6_39
*57 TAP_TAPCELL_ROW_6_40
*58 TAP_TAPCELL_ROW_6_41
*59 TAP_TAPCELL_ROW_6_42
*60 TAP_TAPCELL_ROW_6_43
*61 TAP_TAPCELL_ROW_7_44
*62 TAP_TAPCELL_ROW_7_45
*63 TAP_TAPCELL_ROW_7_46
*64 TAP_TAPCELL_ROW_7_47
*65 TAP_TAPCELL_ROW_7_48
*66 TAP_TAPCELL_ROW_8_49
*67 TAP_TAPCELL_ROW_8_50
*68 TAP_TAPCELL_ROW_8_51
*69 TAP_TAPCELL_ROW_8_52
*70 TAP_TAPCELL_ROW_8_53
*71 TAP_TAPCELL_ROW_8_54
*72 TAP_TAPCELL_ROW_9_55
*73 TAP_TAPCELL_ROW_9_56
*74 TAP_TAPCELL_ROW_9_57
*75 TAP_TAPCELL_ROW_9_58
*76 TAP_TAPCELL_ROW_9_59
*11 _0_
*16 input1
*15 input2
*14 input3
*13 output4
*12 output5

*PORTS
cin I
cout O
in1 I
in2 I
sum O

*D_NET *9 0.00223334
*CONN
*P cin I
*I *16:A I *D sky130_fd_sc_hd__clkdlybuf4s50_1
*CAP
1 cin 0.000844901
2 *16:A 0.000844901
3 *14:A *16:A 0.000374977
4 *15:A *16:A 0.000168562
*RES
1 cin *16:A 28.8204 
*END

*D_NET *6 0.0272611
*CONN
*P cout O
*I *13:X O *D sky130_fd_sc_hd__clkdlybuf4s50_1
*CAP
1 cout 0.000112772
2 *13:X 0
3 *6:6 0.0131009
4 *6:4 0.0129881
5 sum cout 4.46726e-05
6 sum *6:6 0.00101469
*RES
1 *13:X *6:4 9.24915 
2 *6:4 *6:6 199.826 
3 *6:6 cout 10.0414 
*END

*D_NET *8 0.00216581
*CONN
*P in1 I
*I *15:A I *D sky130_fd_sc_hd__clkdlybuf4s50_1
*CAP
1 in1 0.000808209
2 *15:A 0.000808209
3 *15:A *16:A 0.000168562
4 *14:A *15:A 0.000380834
*RES
1 in1 *15:A 29.2356 
*END

*D_NET *7 0.00261757
*CONN
*P in2 I
*I *14:A I *D sky130_fd_sc_hd__clkdlybuf4s50_1
*CAP
1 in2 0.000930879
2 *14:A 0.000930879
3 *14:A *15:A 0.000380834
4 *14:A *16:A 0.000374977
*RES
1 in2 *14:A 40.6992 
*END

*D_NET *1 0.00118131
*CONN
*I *11:CIN I *D sky130_fd_sc_hd__fa_1
*I *16:X O *D sky130_fd_sc_hd__clkdlybuf4s50_1
*CAP
1 *11:CIN 0.000521899
2 *16:X 0.000521899
3 *11:CIN *13:A 0.000137516
*RES
1 *16:X *11:CIN 36.1543 
*END

*D_NET *3 0.000218671
*CONN
*I *11:A I *D sky130_fd_sc_hd__fa_1
*I *15:X O *D sky130_fd_sc_hd__clkdlybuf4s50_1
*CAP
1 *11:A 5.21871e-05
2 *15:X 5.21871e-05
3 *11:A *11:B 0.000114296
*RES
1 *15:X *11:A 10.9974 
*END

*D_NET *4 0.000793445
*CONN
*I *11:B I *D sky130_fd_sc_hd__fa_1
*I *14:X O *D sky130_fd_sc_hd__clkdlybuf4s50_1
*CAP
1 *11:B 0.000252532
2 *14:X 0.000252532
3 *11:A *11:B 0.000114296
4 *13:A *11:B 0.000174085
*RES
1 *14:X *11:B 25.5666 
*END

*D_NET *2 0.000954744
*CONN
*I *13:A I *D sky130_fd_sc_hd__clkdlybuf4s50_1
*I *11:COUT O *D sky130_fd_sc_hd__fa_1
*CAP
1 *13:A 0.000321571
2 *11:COUT 0.000321571
3 *13:A *11:B 0.000174085
4 *11:CIN *13:A 0.000137516
*RES
1 *11:COUT *13:A 36.599 
*END

*D_NET *10 0.000619678
*CONN
*I *12:A I *D sky130_fd_sc_hd__clkdlybuf4s50_1
*I *11:SUM O *D sky130_fd_sc_hd__fa_1
*CAP
1 *12:A 0.000309839
2 *11:SUM 0.000309839
*RES
1 *11:SUM *12:A 25.8769 
*END

*D_NET *5 0.0185657
*CONN
*P sum O
*I *12:X O *D sky130_fd_sc_hd__clkdlybuf4s50_1
*CAP
1 sum 0.00238543
2 *12:X 0
3 *5:6 0.00875319
4 *5:4 0.00636776
5 sum cout 4.46726e-05
6 sum *6:6 0.00101469
*RES
1 *12:X *5:4 9.24915 
2 *5:4 *5:6 141.593 
3 *5:6 sum 17.6031 
*END
